p cnf 1227 19068
-1 -2 0
-1 -3 0
-2 -3 0
1 2 3 0
-4 -5 0
-4 -6 0
-4 -7 0
-4 -8 0
-4 -9 0
-4 -10 0
-5 -6 0
-5 -7 0
-5 -8 0
-5 -9 0
-5 -10 0
-6 -7 0
-6 -8 0
-6 -9 0
-6 -10 0
-7 -8 0
-7 -9 0
-7 -10 0
-8 -9 0
-8 -10 0
-9 -10 0
4 5 6 7 8 9 10 0
-11 -12 0
-11 -13 0
-11 -14 0
-11 -15 0
-11 -16 0
-12 -13 0
-12 -14 0
-12 -15 0
-12 -16 0
-13 -14 0
-13 -15 0
-13 -16 0
-14 -15 0
-14 -16 0
-15 -16 0
11 12 13 14 15 16 0
-17 -18 0
-17 -19 0
-17 -20 0
-17 -21 0
-17 -22 0
-18 -19 0
-18 -20 0
-18 -21 0
-18 -22 0
-19 -20 0
-19 -21 0
-19 -22 0
-20 -21 0
-20 -22 0
-21 -22 0
17 18 19 20 21 22 0
-23 -24 0
23 24 0
-25 -26 0
-25 -27 0
-25 -28 0
-25 -29 0
-25 -30 0
-26 -27 0
-26 -28 0
-26 -29 0
-26 -30 0
-27 -28 0
-27 -29 0
-27 -30 0
-28 -29 0
-28 -30 0
-29 -30 0
25 26 27 28 29 30 0
-31 -32 0
31 32 0
-33 -34 0
33 34 0
-35 -36 0
35 36 0
-37 -38 0
37 38 0
3 0
4 0
12 0
18 0
23 0
26 0
31 0
34 0
36 0
38 0
-78 -79 0
-78 -79 0
-39 -40 0
-39 -41 0
-39 -42 0
-39 -43 0
-39 -44 0
-39 -57 0
-39 -58 0
-39 -59 0
-39 -60 0
-39 -61 0
-39 -62 0
-39 -76 0
-40 -41 0
-40 -42 0
-40 -43 0
-40 -44 0
-40 -57 0
-40 -58 0
-40 -59 0
-40 -60 0
-40 -61 0
-40 -62 0
-40 -76 0
-41 -42 0
-41 -43 0
-41 -44 0
-41 -57 0
-41 -58 0
-41 -59 0
-41 -60 0
-41 -61 0
-41 -62 0
-41 -76 0
-42 -43 0
-42 -44 0
-42 -57 0
-42 -58 0
-42 -59 0
-42 -60 0
-42 -61 0
-42 -62 0
-42 -76 0
-43 -44 0
-43 -57 0
-43 -58 0
-43 -59 0
-43 -60 0
-43 -61 0
-43 -62 0
-43 -76 0
-44 -57 0
-44 -58 0
-44 -59 0
-44 -60 0
-44 -61 0
-44 -62 0
-44 -76 0
-57 -58 0
-57 -59 0
-57 -60 0
-57 -61 0
-57 -62 0
-57 -76 0
-58 -59 0
-58 -60 0
-58 -61 0
-58 -62 0
-58 -76 0
-59 -60 0
-59 -61 0
-59 -62 0
-59 -76 0
-60 -61 0
-60 -62 0
-60 -76 0
-61 -62 0
-61 -76 0
-62 -76 0
-45 -46 0
-45 -47 0
-45 -48 0
-45 -49 0
-45 -50 0
-45 -63 0
-45 -64 0
-45 -65 0
-45 -66 0
-45 -67 0
-45 -68 0
-45 -77 0
-46 -47 0
-46 -48 0
-46 -49 0
-46 -50 0
-46 -63 0
-46 -64 0
-46 -65 0
-46 -66 0
-46 -67 0
-46 -68 0
-46 -77 0
-47 -48 0
-47 -49 0
-47 -50 0
-47 -63 0
-47 -64 0
-47 -65 0
-47 -66 0
-47 -67 0
-47 -68 0
-47 -77 0
-48 -49 0
-48 -50 0
-48 -63 0
-48 -64 0
-48 -65 0
-48 -66 0
-48 -67 0
-48 -68 0
-48 -77 0
-49 -50 0
-49 -63 0
-49 -64 0
-49 -65 0
-49 -66 0
-49 -67 0
-49 -68 0
-49 -77 0
-50 -63 0
-50 -64 0
-50 -65 0
-50 -66 0
-50 -67 0
-50 -68 0
-50 -77 0
-63 -64 0
-63 -65 0
-63 -66 0
-63 -67 0
-63 -68 0
-63 -77 0
-64 -65 0
-64 -66 0
-64 -67 0
-64 -68 0
-64 -77 0
-65 -66 0
-65 -67 0
-65 -68 0
-65 -77 0
-66 -67 0
-66 -68 0
-66 -77 0
-67 -68 0
-67 -77 0
-68 -77 0
-39 -40 0
-39 -41 0
-39 -45 0
-39 -46 0
-39 -47 0
-39 -51 0
-39 -52 0
-39 -53 0
-39 -57 0
-39 -58 0
-39 -59 0
-39 -63 0
-39 -64 0
-39 -65 0
-39 -69 0
-39 -70 0
-39 -71 0
-40 -41 0
-40 -45 0
-40 -46 0
-40 -47 0
-40 -51 0
-40 -52 0
-40 -53 0
-40 -57 0
-40 -58 0
-40 -59 0
-40 -63 0
-40 -64 0
-40 -65 0
-40 -69 0
-40 -70 0
-40 -71 0
-41 -45 0
-41 -46 0
-41 -47 0
-41 -51 0
-41 -52 0
-41 -53 0
-41 -57 0
-41 -58 0
-41 -59 0
-41 -63 0
-41 -64 0
-41 -65 0
-41 -69 0
-41 -70 0
-41 -71 0
-45 -46 0
-45 -47 0
-45 -51 0
-45 -52 0
-45 -53 0
-45 -57 0
-45 -58 0
-45 -59 0
-45 -63 0
-45 -64 0
-45 -65 0
-45 -69 0
-45 -70 0
-45 -71 0
-46 -47 0
-46 -51 0
-46 -52 0
-46 -53 0
-46 -57 0
-46 -58 0
-46 -59 0
-46 -63 0
-46 -64 0
-46 -65 0
-46 -69 0
-46 -70 0
-46 -71 0
-47 -51 0
-47 -52 0
-47 -53 0
-47 -57 0
-47 -58 0
-47 -59 0
-47 -63 0
-47 -64 0
-47 -65 0
-47 -69 0
-47 -70 0
-47 -71 0
-51 -52 0
-51 -53 0
-51 -57 0
-51 -58 0
-51 -59 0
-51 -63 0
-51 -64 0
-51 -65 0
-51 -69 0
-51 -70 0
-51 -71 0
-52 -53 0
-52 -57 0
-52 -58 0
-52 -59 0
-52 -63 0
-52 -64 0
-52 -65 0
-52 -69 0
-52 -70 0
-52 -71 0
-53 -57 0
-53 -58 0
-53 -59 0
-53 -63 0
-53 -64 0
-53 -65 0
-53 -69 0
-53 -70 0
-53 -71 0
-57 -58 0
-57 -59 0
-57 -63 0
-57 -64 0
-57 -65 0
-57 -69 0
-57 -70 0
-57 -71 0
-58 -59 0
-58 -63 0
-58 -64 0
-58 -65 0
-58 -69 0
-58 -70 0
-58 -71 0
-59 -63 0
-59 -64 0
-59 -65 0
-59 -69 0
-59 -70 0
-59 -71 0
-63 -64 0
-63 -65 0
-63 -69 0
-63 -70 0
-63 -71 0
-64 -65 0
-64 -69 0
-64 -70 0
-64 -71 0
-65 -69 0
-65 -70 0
-65 -71 0
-69 -70 0
-69 -71 0
-70 -71 0
-51 -52 0
-51 -53 0
-51 -54 0
-51 -55 0
-51 -56 0
-51 -69 0
-51 -70 0
-51 -71 0
-51 -72 0
-51 -73 0
-51 -74 0
-51 -75 0
-52 -53 0
-52 -54 0
-52 -55 0
-52 -56 0
-52 -69 0
-52 -70 0
-52 -71 0
-52 -72 0
-52 -73 0
-52 -74 0
-52 -75 0
-53 -54 0
-53 -55 0
-53 -56 0
-53 -69 0
-53 -70 0
-53 -71 0
-53 -72 0
-53 -73 0
-53 -74 0
-53 -75 0
-54 -55 0
-54 -56 0
-54 -69 0
-54 -70 0
-54 -71 0
-54 -72 0
-54 -73 0
-54 -74 0
-54 -75 0
-55 -56 0
-55 -69 0
-55 -70 0
-55 -71 0
-55 -72 0
-55 -73 0
-55 -74 0
-55 -75 0
-56 -69 0
-56 -70 0
-56 -71 0
-56 -72 0
-56 -73 0
-56 -74 0
-56 -75 0
-69 -70 0
-69 -71 0
-69 -72 0
-69 -73 0
-69 -74 0
-69 -75 0
-70 -71 0
-70 -72 0
-70 -73 0
-70 -74 0
-70 -75 0
-71 -72 0
-71 -73 0
-71 -74 0
-71 -75 0
-72 -73 0
-72 -74 0
-72 -75 0
-73 -74 0
-73 -75 0
-74 -75 0
-42 -43 0
-42 -44 0
-42 -48 0
-42 -49 0
-42 -50 0
-42 -54 0
-42 -55 0
-42 -56 0
-42 -60 0
-42 -61 0
-42 -62 0
-42 -66 0
-42 -67 0
-42 -68 0
-42 -72 0
-42 -73 0
-42 -74 0
-43 -44 0
-43 -48 0
-43 -49 0
-43 -50 0
-43 -54 0
-43 -55 0
-43 -56 0
-43 -60 0
-43 -61 0
-43 -62 0
-43 -66 0
-43 -67 0
-43 -68 0
-43 -72 0
-43 -73 0
-43 -74 0
-44 -48 0
-44 -49 0
-44 -50 0
-44 -54 0
-44 -55 0
-44 -56 0
-44 -60 0
-44 -61 0
-44 -62 0
-44 -66 0
-44 -67 0
-44 -68 0
-44 -72 0
-44 -73 0
-44 -74 0
-48 -49 0
-48 -50 0
-48 -54 0
-48 -55 0
-48 -56 0
-48 -60 0
-48 -61 0
-48 -62 0
-48 -66 0
-48 -67 0
-48 -68 0
-48 -72 0
-48 -73 0
-48 -74 0
-49 -50 0
-49 -54 0
-49 -55 0
-49 -56 0
-49 -60 0
-49 -61 0
-49 -62 0
-49 -66 0
-49 -67 0
-49 -68 0
-49 -72 0
-49 -73 0
-49 -74 0
-50 -54 0
-50 -55 0
-50 -56 0
-50 -60 0
-50 -61 0
-50 -62 0
-50 -66 0
-50 -67 0
-50 -68 0
-50 -72 0
-50 -73 0
-50 -74 0
-54 -55 0
-54 -56 0
-54 -60 0
-54 -61 0
-54 -62 0
-54 -66 0
-54 -67 0
-54 -68 0
-54 -72 0
-54 -73 0
-54 -74 0
-55 -56 0
-55 -60 0
-55 -61 0
-55 -62 0
-55 -66 0
-55 -67 0
-55 -68 0
-55 -72 0
-55 -73 0
-55 -74 0
-56 -60 0
-56 -61 0
-56 -62 0
-56 -66 0
-56 -67 0
-56 -68 0
-56 -72 0
-56 -73 0
-56 -74 0
-60 -61 0
-60 -62 0
-60 -66 0
-60 -67 0
-60 -68 0
-60 -72 0
-60 -73 0
-60 -74 0
-61 -62 0
-61 -66 0
-61 -67 0
-61 -68 0
-61 -72 0
-61 -73 0
-61 -74 0
-62 -66 0
-62 -67 0
-62 -68 0
-62 -72 0
-62 -73 0
-62 -74 0
-66 -67 0
-66 -68 0
-66 -72 0
-66 -73 0
-66 -74 0
-67 -68 0
-67 -72 0
-67 -73 0
-67 -74 0
-68 -72 0
-68 -73 0
-68 -74 0
-72 -73 0
-72 -74 0
-73 -74 0
39 40 41 42 43 44 45 46 47 48 49 50 51 52 53 54 55 56 57 58 59 60 61 62 63 64 65 66 67 68 69 70 71 72 73 74 75 76 77 78 79 0
-39 80 0
-42 80 0
-45 80 0
-48 80 0
-51 80 0
-54 80 0
-57 80 0
-60 80 0
-63 80 0
-66 80 0
-69 80 0
-72 80 0
-80 39 42 45 48 51 54 57 60 63 66 69 72 0
-75 81 0
-76 81 0
-77 81 0
-81 75 76 77 0
-40 82 0
-43 82 0
-46 82 0
-49 82 0
-52 82 0
-55 82 0
-58 82 0
-61 82 0
-64 82 0
-67 82 0
-70 82 0
-73 82 0
-82 40 43 46 49 52 55 58 61 64 67 70 73 0
-41 83 0
-44 83 0
-47 83 0
-50 83 0
-53 83 0
-56 83 0
-59 83 0
-62 83 0
-65 83 0
-68 83 0
-71 83 0
-74 83 0
-83 41 44 47 50 53 56 59 62 65 68 71 74 0
-39 84 0
-40 84 0
-41 84 0
-42 84 0
-43 84 0
-44 84 0
-45 84 0
-46 84 0
-47 84 0
-48 84 0
-49 84 0
-50 84 0
-51 84 0
-52 84 0
-53 84 0
-54 84 0
-55 84 0
-56 84 0
-57 84 0
-58 84 0
-59 84 0
-60 84 0
-61 84 0
-62 84 0
-63 84 0
-64 84 0
-65 84 0
-66 84 0
-67 84 0
-68 84 0
-69 84 0
-70 84 0
-71 84 0
-72 84 0
-73 84 0
-74 84 0
-84 39 40 41 42 43 44 45 46 47 48 49 50 51 52 53 54 55 56 57 58 59 60 61 62 63 64 65 66 67 68 69 70 71 72 73 74 0
-75 85 0
-77 85 0
-85 75 77 0
-45 86 0
-46 86 0
-47 86 0
-48 86 0
-49 86 0
-50 86 0
-51 86 0
-52 86 0
-53 86 0
-54 86 0
-55 86 0
-56 86 0
-63 86 0
-64 86 0
-65 86 0
-66 86 0
-67 86 0
-68 86 0
-69 86 0
-70 86 0
-71 86 0
-72 86 0
-73 86 0
-74 86 0
-75 86 0
-77 86 0
-78 86 0
-79 86 0
-86 45 46 47 48 49 50 51 52 53 54 55 56 63 64 65 66 67 68 69 70 71 72 73 74 75 77 78 79 0
-39 87 0
-40 87 0
-41 87 0
-42 87 0
-43 87 0
-44 87 0
-51 87 0
-52 87 0
-53 87 0
-54 87 0
-55 87 0
-56 87 0
-57 87 0
-58 87 0
-59 87 0
-60 87 0
-61 87 0
-62 87 0
-69 87 0
-70 87 0
-71 87 0
-72 87 0
-73 87 0
-74 87 0
-75 87 0
-76 87 0
-78 87 0
-79 87 0
-87 39 40 41 42 43 44 51 52 53 54 55 56 57 58 59 60 61 62 69 70 71 72 73 74 75 76 78 79 0
-42 88 0
-43 88 0
-44 88 0
-48 88 0
-49 88 0
-50 88 0
-54 88 0
-55 88 0
-56 88 0
-60 88 0
-61 88 0
-62 88 0
-66 88 0
-67 88 0
-68 88 0
-72 88 0
-73 88 0
-74 88 0
-88 42 43 44 48 49 50 54 55 56 60 61 62 66 67 68 72 73 74 0
-57 89 0
-58 89 0
-59 89 0
-63 89 0
-64 89 0
-65 89 0
-69 89 0
-70 89 0
-71 89 0
-89 57 58 59 63 64 65 69 70 71 0
-75 90 0
-76 90 0
-77 90 0
-78 90 0
-79 90 0
-90 75 76 77 78 79 0
-39 91 0
-40 91 0
-41 91 0
-45 91 0
-46 91 0
-47 91 0
-51 91 0
-52 91 0
-53 91 0
-91 39 40 41 45 46 47 51 52 53 0
-39 92 0
-40 92 0
-41 92 0
-42 92 0
-43 92 0
-44 92 0
-45 92 0
-46 92 0
-47 92 0
-48 92 0
-49 92 0
-50 92 0
-57 92 0
-58 92 0
-59 92 0
-60 92 0
-61 92 0
-62 92 0
-63 92 0
-64 92 0
-65 92 0
-66 92 0
-67 92 0
-68 92 0
-76 92 0
-77 92 0
-78 92 0
-79 92 0
-92 39 40 41 42 43 44 45 46 47 48 49 50 57 58 59 60 61 62 63 64 65 66 67 68 76 77 78 79 0
-60 93 0
-61 93 0
-62 93 0
-66 93 0
-67 93 0
-68 93 0
-72 93 0
-73 93 0
-74 93 0
-93 60 61 62 66 67 68 72 73 74 0
-39 94 0
-40 94 0
-41 94 0
-45 94 0
-46 94 0
-47 94 0
-51 94 0
-52 94 0
-53 94 0
-57 94 0
-58 94 0
-59 94 0
-63 94 0
-64 94 0
-65 94 0
-69 94 0
-70 94 0
-71 94 0
-75 94 0
-76 94 0
-77 94 0
-78 94 0
-79 94 0
-94 39 40 41 45 46 47 51 52 53 57 58 59 63 64 65 69 70 71 75 76 77 78 79 0
-42 95 0
-43 95 0
-44 95 0
-48 95 0
-49 95 0
-50 95 0
-54 95 0
-55 95 0
-56 95 0
-95 42 43 44 48 49 50 54 55 56 0
-39 96 0
-40 96 0
-41 96 0
-42 96 0
-43 96 0
-44 96 0
-45 96 0
-46 96 0
-47 96 0
-48 96 0
-49 96 0
-50 96 0
-51 96 0
-52 96 0
-53 96 0
-54 96 0
-55 96 0
-56 96 0
-57 96 0
-58 96 0
-59 96 0
-60 96 0
-61 96 0
-62 96 0
-63 96 0
-64 96 0
-65 96 0
-66 96 0
-67 96 0
-68 96 0
-69 96 0
-70 96 0
-71 96 0
-72 96 0
-73 96 0
-74 96 0
-75 96 0
-77 96 0
-78 96 0
-79 96 0
-96 39 40 41 42 43 44 45 46 47 48 49 50 51 52 53 54 55 56 57 58 59 60 61 62 63 64 65 66 67 68 69 70 71 72 73 74 75 77 78 79 0
-39 97 0
-40 97 0
-41 97 0
-42 97 0
-43 97 0
-44 97 0
-45 97 0
-46 97 0
-47 97 0
-48 97 0
-49 97 0
-50 97 0
-51 97 0
-52 97 0
-53 97 0
-54 97 0
-55 97 0
-56 97 0
-57 97 0
-58 97 0
-59 97 0
-60 97 0
-61 97 0
-62 97 0
-63 97 0
-64 97 0
-65 97 0
-66 97 0
-67 97 0
-68 97 0
-69 97 0
-70 97 0
-71 97 0
-72 97 0
-73 97 0
-74 97 0
-75 97 0
-76 97 0
-78 97 0
-79 97 0
-97 39 40 41 42 43 44 45 46 47 48 49 50 51 52 53 54 55 56 57 58 59 60 61 62 63 64 65 66 67 68 69 70 71 72 73 74 75 76 78 79 0
-39 98 0
-40 98 0
-41 98 0
-42 98 0
-43 98 0
-44 98 0
-45 98 0
-46 98 0
-47 98 0
-48 98 0
-49 98 0
-50 98 0
-51 98 0
-52 98 0
-53 98 0
-54 98 0
-55 98 0
-56 98 0
-57 98 0
-58 98 0
-59 98 0
-60 98 0
-61 98 0
-62 98 0
-63 98 0
-64 98 0
-65 98 0
-66 98 0
-67 98 0
-68 98 0
-69 98 0
-70 98 0
-71 98 0
-72 98 0
-73 98 0
-74 98 0
-76 98 0
-77 98 0
-78 98 0
-79 98 0
-98 39 40 41 42 43 44 45 46 47 48 49 50 51 52 53 54 55 56 57 58 59 60 61 62 63 64 65 66 67 68 69 70 71 72 73 74 76 77 78 79 0
-99 -100 0
-99 -101 0
-100 -101 0
99 100 101 0
-102 -103 0
-102 -104 0
-102 -105 0
-102 -106 0
-102 -107 0
-102 -108 0
-103 -104 0
-103 -105 0
-103 -106 0
-103 -107 0
-103 -108 0
-104 -105 0
-104 -106 0
-104 -107 0
-104 -108 0
-105 -106 0
-105 -107 0
-105 -108 0
-106 -107 0
-106 -108 0
-107 -108 0
102 103 104 105 106 107 108 0
-109 -110 0
-109 -111 0
-109 -112 0
-109 -113 0
-109 -114 0
-110 -111 0
-110 -112 0
-110 -113 0
-110 -114 0
-111 -112 0
-111 -113 0
-111 -114 0
-112 -113 0
-112 -114 0
-113 -114 0
109 110 111 112 113 114 0
-115 -116 0
-115 -117 0
-115 -118 0
-115 -119 0
-115 -120 0
-116 -117 0
-116 -118 0
-116 -119 0
-116 -120 0
-117 -118 0
-117 -119 0
-117 -120 0
-118 -119 0
-118 -120 0
-119 -120 0
115 116 117 118 119 120 0
-121 -122 0
121 122 0
-123 -124 0
-123 -125 0
-123 -126 0
-123 -127 0
-123 -128 0
-124 -125 0
-124 -126 0
-124 -127 0
-124 -128 0
-125 -126 0
-125 -127 0
-125 -128 0
-126 -127 0
-126 -128 0
-127 -128 0
123 124 125 126 127 128 0
-129 -130 0
129 130 0
-131 -132 0
131 132 0
-133 -134 0
133 134 0
-135 -136 0
135 136 0
-80 1 0
-80 99 0
-78 -3 0
-78 -1 -99 0
-78 -2 -100 0
-82 2 0
-82 100 0
-79 -1 0
-79 -2 0
-79 -101 0
-83 3 0
-83 101 0
137 78 79 0
-137 -1 99 0
137 -1 -99 0
-137 -2 100 0
137 -2 -100 0
-137 -3 101 0
137 -3 -101 0
-79 -5 0
-79 -10 0
-79 -102 0
-79 -104 0
-4 -104 0
-4 -105 0
-4 -106 0
-4 -107 0
-4 -108 0
-79 -4 103 0
-6 -102 0
-6 -103 0
-6 -106 0
-6 -107 0
-6 -108 0
-79 -6 105 0
-7 -102 0
-7 -103 0
-7 -104 0
-7 -107 0
-7 -108 0
-79 -7 106 0
-8 -102 0
-8 -103 0
-8 -104 0
-8 -105 0
-8 -108 0
-79 -8 107 0
-9 -102 0
-9 -103 0
-9 -104 0
-9 -105 0
-9 -106 0
-79 -9 108 0
-85 5 6 7 8 9 10 0
-85 103 104 105 106 107 108 0
-78 -4 0
-78 -10 0
-78 -102 0
-78 -103 0
-5 -102 0
-5 -105 0
-5 -106 0
-5 -107 0
-5 -108 0
-78 -5 104 0
-6 -102 0
-6 -103 0
-6 -106 0
-6 -107 0
-6 -108 0
-78 -6 105 0
-7 -102 0
-7 -103 0
-7 -104 0
-7 -107 0
-7 -108 0
-78 -7 106 0
-8 -102 0
-8 -103 0
-8 -104 0
-8 -105 0
-8 -108 0
-78 -8 107 0
-9 -102 0
-9 -103 0
-9 -104 0
-9 -105 0
-9 -106 0
-78 -9 108 0
-76 6 7 0
-76 104 105 0
138 79 78 0
-138 -4 102 0
138 -4 -102 0
-138 -5 103 0
138 -5 -103 0
-138 -6 104 0
138 -6 -104 0
-138 -7 105 0
138 -7 -105 0
-138 -8 106 0
138 -8 -106 0
-138 -9 107 0
138 -9 -107 0
-138 -10 108 0
138 -10 -108 0
-39 -12 0
-39 -13 0
-39 -14 0
-39 -15 0
-39 -16 0
-39 -109 0
-39 -110 0
-39 -111 0
-39 -113 0
-39 -114 0
-11 -110 0
-11 -111 0
-11 -114 0
-39 -11 112 0
-42 -12 0
-42 -13 0
-42 -14 0
-42 -15 0
-42 -16 0
-42 -109 0
-42 -110 0
-42 -111 0
-42 -112 0
-42 -114 0
-11 -110 0
-11 -111 0
-11 -114 0
-42 -11 113 0
-40 -11 0
-40 -13 0
-40 -14 0
-40 -15 0
-40 -16 0
-40 -109 0
-40 -110 0
-40 -111 0
-40 -113 0
-40 -114 0
-12 -109 0
-12 -111 0
-12 -114 0
-40 -12 112 0
-43 -11 0
-43 -13 0
-43 -14 0
-43 -15 0
-43 -16 0
-43 -109 0
-43 -110 0
-43 -111 0
-43 -112 0
-43 -114 0
-12 -109 0
-12 -111 0
-12 -114 0
-43 -12 113 0
-41 -11 0
-41 -12 0
-41 -14 0
-41 -15 0
-41 -16 0
-41 -109 0
-41 -110 0
-41 -111 0
-41 -113 0
-41 -114 0
-13 -109 0
-13 -110 0
-41 -13 112 0
-44 -11 0
-44 -12 0
-44 -14 0
-44 -15 0
-44 -16 0
-44 -109 0
-44 -110 0
-44 -111 0
-44 -112 0
-44 -114 0
-13 -109 0
-13 -110 0
-44 -13 113 0
-76 -11 0
-76 -12 0
-76 -14 0
-76 -15 0
-76 -16 0
-76 -109 0
-76 -110 0
-76 -111 0
-76 -112 0
-76 -113 0
-13 -109 0
-13 -110 0
-76 -13 114 0
-57 -11 0
-57 -12 0
-57 -13 0
-57 -15 0
-57 -16 0
-57 -110 0
-57 -111 0
-57 -112 0
-57 -113 0
-57 -114 0
-14 -113 0
-14 -114 0
-57 -14 109 0
-58 -11 0
-58 -12 0
-58 -13 0
-58 -15 0
-58 -16 0
-58 -109 0
-58 -111 0
-58 -112 0
-58 -113 0
-58 -114 0
-14 -113 0
-14 -114 0
-58 -14 110 0
-59 -11 0
-59 -12 0
-59 -13 0
-59 -15 0
-59 -16 0
-59 -109 0
-59 -110 0
-59 -112 0
-59 -113 0
-59 -114 0
-14 -113 0
-14 -114 0
-59 -14 111 0
-60 -11 0
-60 -12 0
-60 -13 0
-60 -14 0
-60 -16 0
-60 -110 0
-60 -111 0
-60 -112 0
-60 -113 0
-60 -114 0
-15 -112 0
-15 -114 0
-60 -15 109 0
-61 -11 0
-61 -12 0
-61 -13 0
-61 -14 0
-61 -16 0
-61 -109 0
-61 -111 0
-61 -112 0
-61 -113 0
-61 -114 0
-15 -112 0
-15 -114 0
-61 -15 110 0
-62 -11 0
-62 -12 0
-62 -13 0
-62 -14 0
-62 -16 0
-62 -109 0
-62 -110 0
-62 -112 0
-62 -113 0
-62 -114 0
-15 -112 0
-15 -114 0
-62 -15 111 0
139 39 42 40 43 41 44 76 57 58 59 60 61 62 0
-139 -11 109 0
139 -11 -109 0
-139 -12 110 0
139 -12 -110 0
-139 -13 111 0
139 -13 -111 0
-139 -14 112 0
139 -14 -112 0
-139 -15 113 0
139 -15 -113 0
-139 -16 114 0
139 -16 -114 0
-45 -18 0
-45 -19 0
-45 -20 0
-45 -21 0
-45 -22 0
-45 -115 0
-45 -116 0
-45 -117 0
-45 -119 0
-45 -120 0
-17 -116 0
-17 -117 0
-45 -17 118 0
-48 -18 0
-48 -19 0
-48 -20 0
-48 -21 0
-48 -22 0
-48 -115 0
-48 -116 0
-48 -117 0
-48 -118 0
-48 -120 0
-17 -116 0
-17 -117 0
-48 -17 119 0
-77 -18 0
-77 -19 0
-77 -20 0
-77 -21 0
-77 -22 0
-77 -115 0
-77 -116 0
-77 -117 0
-77 -118 0
-77 -119 0
-17 -116 0
-17 -117 0
-77 -17 120 0
-46 -17 0
-46 -19 0
-46 -20 0
-46 -21 0
-46 -22 0
-46 -115 0
-46 -116 0
-46 -117 0
-46 -119 0
-46 -120 0
-18 -115 0
-18 -117 0
-18 -120 0
-46 -18 118 0
-49 -17 0
-49 -19 0
-49 -20 0
-49 -21 0
-49 -22 0
-49 -115 0
-49 -116 0
-49 -117 0
-49 -118 0
-49 -120 0
-18 -115 0
-18 -117 0
-18 -120 0
-49 -18 119 0
-47 -17 0
-47 -18 0
-47 -20 0
-47 -21 0
-47 -22 0
-47 -115 0
-47 -116 0
-47 -117 0
-47 -119 0
-47 -120 0
-19 -115 0
-19 -116 0
-19 -120 0
-47 -19 118 0
-50 -17 0
-50 -18 0
-50 -20 0
-50 -21 0
-50 -22 0
-50 -115 0
-50 -116 0
-50 -117 0
-50 -118 0
-50 -120 0
-19 -115 0
-19 -116 0
-19 -120 0
-50 -19 119 0
-63 -17 0
-63 -18 0
-63 -19 0
-63 -21 0
-63 -22 0
-63 -116 0
-63 -117 0
-63 -118 0
-63 -119 0
-63 -120 0
-20 -119 0
-20 -120 0
-63 -20 115 0
-64 -17 0
-64 -18 0
-64 -19 0
-64 -21 0
-64 -22 0
-64 -115 0
-64 -117 0
-64 -118 0
-64 -119 0
-64 -120 0
-20 -119 0
-20 -120 0
-64 -20 116 0
-65 -17 0
-65 -18 0
-65 -19 0
-65 -21 0
-65 -22 0
-65 -115 0
-65 -116 0
-65 -118 0
-65 -119 0
-65 -120 0
-20 -119 0
-20 -120 0
-65 -20 117 0
-66 -17 0
-66 -18 0
-66 -19 0
-66 -20 0
-66 -22 0
-66 -116 0
-66 -117 0
-66 -118 0
-66 -119 0
-66 -120 0
-21 -118 0
-21 -120 0
-66 -21 115 0
-67 -17 0
-67 -18 0
-67 -19 0
-67 -20 0
-67 -22 0
-67 -115 0
-67 -117 0
-67 -118 0
-67 -119 0
-67 -120 0
-21 -118 0
-21 -120 0
-67 -21 116 0
-68 -17 0
-68 -18 0
-68 -19 0
-68 -20 0
-68 -22 0
-68 -115 0
-68 -116 0
-68 -118 0
-68 -119 0
-68 -120 0
-21 -118 0
-21 -120 0
-68 -21 117 0
140 45 48 77 46 49 47 50 63 64 65 66 67 68 0
-140 -17 115 0
140 -17 -115 0
-140 -18 116 0
140 -18 -116 0
-140 -19 117 0
140 -19 -117 0
-140 -20 118 0
140 -20 -118 0
-140 -21 119 0
140 -21 -119 0
-140 -22 120 0
140 -22 -120 0
-88 23 0
-88 121 0
-89 -122 0
-89 -23 121 0
-89 -24 121 0
-91 -24 0
-91 -121 0
-91 -23 122 0
141 89 91 0
-141 -23 121 0
141 -23 -121 0
-141 -24 122 0
141 -24 -122 0
-51 -26 0
-51 -27 0
-51 -28 0
-51 -29 0
-51 -30 0
-51 -123 0
-51 -124 0
-51 -125 0
-51 -127 0
-51 -128 0
-25 -124 0
-25 -125 0
-51 -25 126 0
-54 -26 0
-54 -27 0
-54 -28 0
-54 -29 0
-54 -30 0
-54 -123 0
-54 -124 0
-54 -125 0
-54 -126 0
-54 -128 0
-25 -124 0
-25 -125 0
-54 -25 127 0
-75 -26 0
-75 -27 0
-75 -28 0
-75 -29 0
-75 -30 0
-75 -123 0
-75 -124 0
-75 -125 0
-75 -126 0
-75 -127 0
-25 -124 0
-25 -125 0
-75 -25 128 0
-52 -25 0
-52 -27 0
-52 -28 0
-52 -29 0
-52 -30 0
-52 -123 0
-52 -124 0
-52 -125 0
-52 -127 0
-52 -128 0
-26 -123 0
-26 -125 0
-26 -128 0
-52 -26 126 0
-55 -25 0
-55 -27 0
-55 -28 0
-55 -29 0
-55 -30 0
-55 -123 0
-55 -124 0
-55 -125 0
-55 -126 0
-55 -128 0
-26 -123 0
-26 -125 0
-26 -128 0
-55 -26 127 0
-53 -25 0
-53 -26 0
-53 -28 0
-53 -29 0
-53 -30 0
-53 -123 0
-53 -124 0
-53 -125 0
-53 -127 0
-53 -128 0
-27 -123 0
-27 -124 0
-27 -128 0
-53 -27 126 0
-56 -25 0
-56 -26 0
-56 -28 0
-56 -29 0
-56 -30 0
-56 -123 0
-56 -124 0
-56 -125 0
-56 -126 0
-56 -128 0
-27 -123 0
-27 -124 0
-27 -128 0
-56 -27 127 0
-69 -25 0
-69 -26 0
-69 -27 0
-69 -29 0
-69 -30 0
-69 -124 0
-69 -125 0
-69 -126 0
-69 -127 0
-69 -128 0
-28 -127 0
-28 -128 0
-69 -28 123 0
-70 -25 0
-70 -26 0
-70 -27 0
-70 -29 0
-70 -30 0
-70 -123 0
-70 -125 0
-70 -126 0
-70 -127 0
-70 -128 0
-28 -127 0
-28 -128 0
-70 -28 124 0
-71 -25 0
-71 -26 0
-71 -27 0
-71 -29 0
-71 -30 0
-71 -123 0
-71 -124 0
-71 -126 0
-71 -127 0
-71 -128 0
-28 -127 0
-28 -128 0
-71 -28 125 0
-72 -25 0
-72 -26 0
-72 -27 0
-72 -28 0
-72 -30 0
-72 -124 0
-72 -125 0
-72 -126 0
-72 -127 0
-72 -128 0
-29 -126 0
-29 -128 0
-72 -29 123 0
-73 -25 0
-73 -26 0
-73 -27 0
-73 -28 0
-73 -30 0
-73 -123 0
-73 -125 0
-73 -126 0
-73 -127 0
-73 -128 0
-29 -126 0
-29 -128 0
-73 -29 124 0
-74 -25 0
-74 -26 0
-74 -27 0
-74 -28 0
-74 -30 0
-74 -123 0
-74 -124 0
-74 -126 0
-74 -127 0
-74 -128 0
-29 -126 0
-29 -128 0
-74 -29 125 0
142 51 54 75 52 55 53 56 69 70 71 72 73 74 0
-142 -25 123 0
142 -25 -123 0
-142 -26 124 0
142 -26 -124 0
-142 -27 125 0
142 -27 -125 0
-142 -28 126 0
142 -28 -126 0
-142 -29 127 0
142 -29 -127 0
-142 -30 128 0
142 -30 -128 0
-93 -130 0
-93 -31 129 0
-93 -32 129 0
-95 -32 0
-95 -129 0
-95 -31 130 0
143 93 95 0
-143 -31 129 0
143 -31 -129 0
-143 -32 130 0
143 -32 -130 0
-76 -132 0
-33 -132 0
-76 -33 131 0
-76 -34 131 0
144 76 0
-144 -33 131 0
144 -33 -131 0
-144 -34 132 0
144 -34 -132 0
-77 -134 0
-35 -134 0
-77 -35 133 0
-77 -36 133 0
145 77 0
-145 -35 133 0
145 -35 -133 0
-145 -36 134 0
145 -36 -134 0
-75 -136 0
-37 -136 0
-75 -37 135 0
-75 -38 135 0
146 75 0
-146 -37 135 0
146 -37 -135 0
-146 -38 136 0
146 -38 -136 0
-186 -187 0
-186 -187 0
-147 -148 0
-147 -149 0
-147 -150 0
-147 -151 0
-147 -152 0
-147 -165 0
-147 -166 0
-147 -167 0
-147 -168 0
-147 -169 0
-147 -170 0
-147 -184 0
-148 -149 0
-148 -150 0
-148 -151 0
-148 -152 0
-148 -165 0
-148 -166 0
-148 -167 0
-148 -168 0
-148 -169 0
-148 -170 0
-148 -184 0
-149 -150 0
-149 -151 0
-149 -152 0
-149 -165 0
-149 -166 0
-149 -167 0
-149 -168 0
-149 -169 0
-149 -170 0
-149 -184 0
-150 -151 0
-150 -152 0
-150 -165 0
-150 -166 0
-150 -167 0
-150 -168 0
-150 -169 0
-150 -170 0
-150 -184 0
-151 -152 0
-151 -165 0
-151 -166 0
-151 -167 0
-151 -168 0
-151 -169 0
-151 -170 0
-151 -184 0
-152 -165 0
-152 -166 0
-152 -167 0
-152 -168 0
-152 -169 0
-152 -170 0
-152 -184 0
-165 -166 0
-165 -167 0
-165 -168 0
-165 -169 0
-165 -170 0
-165 -184 0
-166 -167 0
-166 -168 0
-166 -169 0
-166 -170 0
-166 -184 0
-167 -168 0
-167 -169 0
-167 -170 0
-167 -184 0
-168 -169 0
-168 -170 0
-168 -184 0
-169 -170 0
-169 -184 0
-170 -184 0
-153 -154 0
-153 -155 0
-153 -156 0
-153 -157 0
-153 -158 0
-153 -171 0
-153 -172 0
-153 -173 0
-153 -174 0
-153 -175 0
-153 -176 0
-153 -185 0
-154 -155 0
-154 -156 0
-154 -157 0
-154 -158 0
-154 -171 0
-154 -172 0
-154 -173 0
-154 -174 0
-154 -175 0
-154 -176 0
-154 -185 0
-155 -156 0
-155 -157 0
-155 -158 0
-155 -171 0
-155 -172 0
-155 -173 0
-155 -174 0
-155 -175 0
-155 -176 0
-155 -185 0
-156 -157 0
-156 -158 0
-156 -171 0
-156 -172 0
-156 -173 0
-156 -174 0
-156 -175 0
-156 -176 0
-156 -185 0
-157 -158 0
-157 -171 0
-157 -172 0
-157 -173 0
-157 -174 0
-157 -175 0
-157 -176 0
-157 -185 0
-158 -171 0
-158 -172 0
-158 -173 0
-158 -174 0
-158 -175 0
-158 -176 0
-158 -185 0
-171 -172 0
-171 -173 0
-171 -174 0
-171 -175 0
-171 -176 0
-171 -185 0
-172 -173 0
-172 -174 0
-172 -175 0
-172 -176 0
-172 -185 0
-173 -174 0
-173 -175 0
-173 -176 0
-173 -185 0
-174 -175 0
-174 -176 0
-174 -185 0
-175 -176 0
-175 -185 0
-176 -185 0
-147 -148 0
-147 -149 0
-147 -153 0
-147 -154 0
-147 -155 0
-147 -159 0
-147 -160 0
-147 -161 0
-147 -165 0
-147 -166 0
-147 -167 0
-147 -171 0
-147 -172 0
-147 -173 0
-147 -177 0
-147 -178 0
-147 -179 0
-148 -149 0
-148 -153 0
-148 -154 0
-148 -155 0
-148 -159 0
-148 -160 0
-148 -161 0
-148 -165 0
-148 -166 0
-148 -167 0
-148 -171 0
-148 -172 0
-148 -173 0
-148 -177 0
-148 -178 0
-148 -179 0
-149 -153 0
-149 -154 0
-149 -155 0
-149 -159 0
-149 -160 0
-149 -161 0
-149 -165 0
-149 -166 0
-149 -167 0
-149 -171 0
-149 -172 0
-149 -173 0
-149 -177 0
-149 -178 0
-149 -179 0
-153 -154 0
-153 -155 0
-153 -159 0
-153 -160 0
-153 -161 0
-153 -165 0
-153 -166 0
-153 -167 0
-153 -171 0
-153 -172 0
-153 -173 0
-153 -177 0
-153 -178 0
-153 -179 0
-154 -155 0
-154 -159 0
-154 -160 0
-154 -161 0
-154 -165 0
-154 -166 0
-154 -167 0
-154 -171 0
-154 -172 0
-154 -173 0
-154 -177 0
-154 -178 0
-154 -179 0
-155 -159 0
-155 -160 0
-155 -161 0
-155 -165 0
-155 -166 0
-155 -167 0
-155 -171 0
-155 -172 0
-155 -173 0
-155 -177 0
-155 -178 0
-155 -179 0
-159 -160 0
-159 -161 0
-159 -165 0
-159 -166 0
-159 -167 0
-159 -171 0
-159 -172 0
-159 -173 0
-159 -177 0
-159 -178 0
-159 -179 0
-160 -161 0
-160 -165 0
-160 -166 0
-160 -167 0
-160 -171 0
-160 -172 0
-160 -173 0
-160 -177 0
-160 -178 0
-160 -179 0
-161 -165 0
-161 -166 0
-161 -167 0
-161 -171 0
-161 -172 0
-161 -173 0
-161 -177 0
-161 -178 0
-161 -179 0
-165 -166 0
-165 -167 0
-165 -171 0
-165 -172 0
-165 -173 0
-165 -177 0
-165 -178 0
-165 -179 0
-166 -167 0
-166 -171 0
-166 -172 0
-166 -173 0
-166 -177 0
-166 -178 0
-166 -179 0
-167 -171 0
-167 -172 0
-167 -173 0
-167 -177 0
-167 -178 0
-167 -179 0
-171 -172 0
-171 -173 0
-171 -177 0
-171 -178 0
-171 -179 0
-172 -173 0
-172 -177 0
-172 -178 0
-172 -179 0
-173 -177 0
-173 -178 0
-173 -179 0
-177 -178 0
-177 -179 0
-178 -179 0
-159 -160 0
-159 -161 0
-159 -162 0
-159 -163 0
-159 -164 0
-159 -177 0
-159 -178 0
-159 -179 0
-159 -180 0
-159 -181 0
-159 -182 0
-159 -183 0
-160 -161 0
-160 -162 0
-160 -163 0
-160 -164 0
-160 -177 0
-160 -178 0
-160 -179 0
-160 -180 0
-160 -181 0
-160 -182 0
-160 -183 0
-161 -162 0
-161 -163 0
-161 -164 0
-161 -177 0
-161 -178 0
-161 -179 0
-161 -180 0
-161 -181 0
-161 -182 0
-161 -183 0
-162 -163 0
-162 -164 0
-162 -177 0
-162 -178 0
-162 -179 0
-162 -180 0
-162 -181 0
-162 -182 0
-162 -183 0
-163 -164 0
-163 -177 0
-163 -178 0
-163 -179 0
-163 -180 0
-163 -181 0
-163 -182 0
-163 -183 0
-164 -177 0
-164 -178 0
-164 -179 0
-164 -180 0
-164 -181 0
-164 -182 0
-164 -183 0
-177 -178 0
-177 -179 0
-177 -180 0
-177 -181 0
-177 -182 0
-177 -183 0
-178 -179 0
-178 -180 0
-178 -181 0
-178 -182 0
-178 -183 0
-179 -180 0
-179 -181 0
-179 -182 0
-179 -183 0
-180 -181 0
-180 -182 0
-180 -183 0
-181 -182 0
-181 -183 0
-182 -183 0
-150 -151 0
-150 -152 0
-150 -156 0
-150 -157 0
-150 -158 0
-150 -162 0
-150 -163 0
-150 -164 0
-150 -168 0
-150 -169 0
-150 -170 0
-150 -174 0
-150 -175 0
-150 -176 0
-150 -180 0
-150 -181 0
-150 -182 0
-151 -152 0
-151 -156 0
-151 -157 0
-151 -158 0
-151 -162 0
-151 -163 0
-151 -164 0
-151 -168 0
-151 -169 0
-151 -170 0
-151 -174 0
-151 -175 0
-151 -176 0
-151 -180 0
-151 -181 0
-151 -182 0
-152 -156 0
-152 -157 0
-152 -158 0
-152 -162 0
-152 -163 0
-152 -164 0
-152 -168 0
-152 -169 0
-152 -170 0
-152 -174 0
-152 -175 0
-152 -176 0
-152 -180 0
-152 -181 0
-152 -182 0
-156 -157 0
-156 -158 0
-156 -162 0
-156 -163 0
-156 -164 0
-156 -168 0
-156 -169 0
-156 -170 0
-156 -174 0
-156 -175 0
-156 -176 0
-156 -180 0
-156 -181 0
-156 -182 0
-157 -158 0
-157 -162 0
-157 -163 0
-157 -164 0
-157 -168 0
-157 -169 0
-157 -170 0
-157 -174 0
-157 -175 0
-157 -176 0
-157 -180 0
-157 -181 0
-157 -182 0
-158 -162 0
-158 -163 0
-158 -164 0
-158 -168 0
-158 -169 0
-158 -170 0
-158 -174 0
-158 -175 0
-158 -176 0
-158 -180 0
-158 -181 0
-158 -182 0
-162 -163 0
-162 -164 0
-162 -168 0
-162 -169 0
-162 -170 0
-162 -174 0
-162 -175 0
-162 -176 0
-162 -180 0
-162 -181 0
-162 -182 0
-163 -164 0
-163 -168 0
-163 -169 0
-163 -170 0
-163 -174 0
-163 -175 0
-163 -176 0
-163 -180 0
-163 -181 0
-163 -182 0
-164 -168 0
-164 -169 0
-164 -170 0
-164 -174 0
-164 -175 0
-164 -176 0
-164 -180 0
-164 -181 0
-164 -182 0
-168 -169 0
-168 -170 0
-168 -174 0
-168 -175 0
-168 -176 0
-168 -180 0
-168 -181 0
-168 -182 0
-169 -170 0
-169 -174 0
-169 -175 0
-169 -176 0
-169 -180 0
-169 -181 0
-169 -182 0
-170 -174 0
-170 -175 0
-170 -176 0
-170 -180 0
-170 -181 0
-170 -182 0
-174 -175 0
-174 -176 0
-174 -180 0
-174 -181 0
-174 -182 0
-175 -176 0
-175 -180 0
-175 -181 0
-175 -182 0
-176 -180 0
-176 -181 0
-176 -182 0
-180 -181 0
-180 -182 0
-181 -182 0
147 148 149 150 151 152 153 154 155 156 157 158 159 160 161 162 163 164 165 166 167 168 169 170 171 172 173 174 175 176 177 178 179 180 181 182 183 184 185 186 187 0
-147 188 0
-150 188 0
-153 188 0
-156 188 0
-159 188 0
-162 188 0
-165 188 0
-168 188 0
-171 188 0
-174 188 0
-177 188 0
-180 188 0
-188 147 150 153 156 159 162 165 168 171 174 177 180 0
-183 189 0
-184 189 0
-185 189 0
-189 183 184 185 0
-148 190 0
-151 190 0
-154 190 0
-157 190 0
-160 190 0
-163 190 0
-166 190 0
-169 190 0
-172 190 0
-175 190 0
-178 190 0
-181 190 0
-190 148 151 154 157 160 163 166 169 172 175 178 181 0
-149 191 0
-152 191 0
-155 191 0
-158 191 0
-161 191 0
-164 191 0
-167 191 0
-170 191 0
-173 191 0
-176 191 0
-179 191 0
-182 191 0
-191 149 152 155 158 161 164 167 170 173 176 179 182 0
-147 192 0
-148 192 0
-149 192 0
-150 192 0
-151 192 0
-152 192 0
-153 192 0
-154 192 0
-155 192 0
-156 192 0
-157 192 0
-158 192 0
-159 192 0
-160 192 0
-161 192 0
-162 192 0
-163 192 0
-164 192 0
-165 192 0
-166 192 0
-167 192 0
-168 192 0
-169 192 0
-170 192 0
-171 192 0
-172 192 0
-173 192 0
-174 192 0
-175 192 0
-176 192 0
-177 192 0
-178 192 0
-179 192 0
-180 192 0
-181 192 0
-182 192 0
-192 147 148 149 150 151 152 153 154 155 156 157 158 159 160 161 162 163 164 165 166 167 168 169 170 171 172 173 174 175 176 177 178 179 180 181 182 0
-183 193 0
-185 193 0
-193 183 185 0
-153 194 0
-154 194 0
-155 194 0
-156 194 0
-157 194 0
-158 194 0
-159 194 0
-160 194 0
-161 194 0
-162 194 0
-163 194 0
-164 194 0
-171 194 0
-172 194 0
-173 194 0
-174 194 0
-175 194 0
-176 194 0
-177 194 0
-178 194 0
-179 194 0
-180 194 0
-181 194 0
-182 194 0
-183 194 0
-185 194 0
-186 194 0
-187 194 0
-194 153 154 155 156 157 158 159 160 161 162 163 164 171 172 173 174 175 176 177 178 179 180 181 182 183 185 186 187 0
-147 195 0
-148 195 0
-149 195 0
-150 195 0
-151 195 0
-152 195 0
-159 195 0
-160 195 0
-161 195 0
-162 195 0
-163 195 0
-164 195 0
-165 195 0
-166 195 0
-167 195 0
-168 195 0
-169 195 0
-170 195 0
-177 195 0
-178 195 0
-179 195 0
-180 195 0
-181 195 0
-182 195 0
-183 195 0
-184 195 0
-186 195 0
-187 195 0
-195 147 148 149 150 151 152 159 160 161 162 163 164 165 166 167 168 169 170 177 178 179 180 181 182 183 184 186 187 0
-150 196 0
-151 196 0
-152 196 0
-156 196 0
-157 196 0
-158 196 0
-162 196 0
-163 196 0
-164 196 0
-168 196 0
-169 196 0
-170 196 0
-174 196 0
-175 196 0
-176 196 0
-180 196 0
-181 196 0
-182 196 0
-196 150 151 152 156 157 158 162 163 164 168 169 170 174 175 176 180 181 182 0
-165 197 0
-166 197 0
-167 197 0
-171 197 0
-172 197 0
-173 197 0
-177 197 0
-178 197 0
-179 197 0
-197 165 166 167 171 172 173 177 178 179 0
-183 198 0
-184 198 0
-185 198 0
-186 198 0
-187 198 0
-198 183 184 185 186 187 0
-147 199 0
-148 199 0
-149 199 0
-153 199 0
-154 199 0
-155 199 0
-159 199 0
-160 199 0
-161 199 0
-199 147 148 149 153 154 155 159 160 161 0
-147 200 0
-148 200 0
-149 200 0
-150 200 0
-151 200 0
-152 200 0
-153 200 0
-154 200 0
-155 200 0
-156 200 0
-157 200 0
-158 200 0
-165 200 0
-166 200 0
-167 200 0
-168 200 0
-169 200 0
-170 200 0
-171 200 0
-172 200 0
-173 200 0
-174 200 0
-175 200 0
-176 200 0
-184 200 0
-185 200 0
-186 200 0
-187 200 0
-200 147 148 149 150 151 152 153 154 155 156 157 158 165 166 167 168 169 170 171 172 173 174 175 176 184 185 186 187 0
-168 201 0
-169 201 0
-170 201 0
-174 201 0
-175 201 0
-176 201 0
-180 201 0
-181 201 0
-182 201 0
-201 168 169 170 174 175 176 180 181 182 0
-147 202 0
-148 202 0
-149 202 0
-153 202 0
-154 202 0
-155 202 0
-159 202 0
-160 202 0
-161 202 0
-165 202 0
-166 202 0
-167 202 0
-171 202 0
-172 202 0
-173 202 0
-177 202 0
-178 202 0
-179 202 0
-183 202 0
-184 202 0
-185 202 0
-186 202 0
-187 202 0
-202 147 148 149 153 154 155 159 160 161 165 166 167 171 172 173 177 178 179 183 184 185 186 187 0
-150 203 0
-151 203 0
-152 203 0
-156 203 0
-157 203 0
-158 203 0
-162 203 0
-163 203 0
-164 203 0
-203 150 151 152 156 157 158 162 163 164 0
-147 204 0
-148 204 0
-149 204 0
-150 204 0
-151 204 0
-152 204 0
-153 204 0
-154 204 0
-155 204 0
-156 204 0
-157 204 0
-158 204 0
-159 204 0
-160 204 0
-161 204 0
-162 204 0
-163 204 0
-164 204 0
-165 204 0
-166 204 0
-167 204 0
-168 204 0
-169 204 0
-170 204 0
-171 204 0
-172 204 0
-173 204 0
-174 204 0
-175 204 0
-176 204 0
-177 204 0
-178 204 0
-179 204 0
-180 204 0
-181 204 0
-182 204 0
-183 204 0
-185 204 0
-186 204 0
-187 204 0
-204 147 148 149 150 151 152 153 154 155 156 157 158 159 160 161 162 163 164 165 166 167 168 169 170 171 172 173 174 175 176 177 178 179 180 181 182 183 185 186 187 0
-147 205 0
-148 205 0
-149 205 0
-150 205 0
-151 205 0
-152 205 0
-153 205 0
-154 205 0
-155 205 0
-156 205 0
-157 205 0
-158 205 0
-159 205 0
-160 205 0
-161 205 0
-162 205 0
-163 205 0
-164 205 0
-165 205 0
-166 205 0
-167 205 0
-168 205 0
-169 205 0
-170 205 0
-171 205 0
-172 205 0
-173 205 0
-174 205 0
-175 205 0
-176 205 0
-177 205 0
-178 205 0
-179 205 0
-180 205 0
-181 205 0
-182 205 0
-183 205 0
-184 205 0
-186 205 0
-187 205 0
-205 147 148 149 150 151 152 153 154 155 156 157 158 159 160 161 162 163 164 165 166 167 168 169 170 171 172 173 174 175 176 177 178 179 180 181 182 183 184 186 187 0
-147 206 0
-148 206 0
-149 206 0
-150 206 0
-151 206 0
-152 206 0
-153 206 0
-154 206 0
-155 206 0
-156 206 0
-157 206 0
-158 206 0
-159 206 0
-160 206 0
-161 206 0
-162 206 0
-163 206 0
-164 206 0
-165 206 0
-166 206 0
-167 206 0
-168 206 0
-169 206 0
-170 206 0
-171 206 0
-172 206 0
-173 206 0
-174 206 0
-175 206 0
-176 206 0
-177 206 0
-178 206 0
-179 206 0
-180 206 0
-181 206 0
-182 206 0
-184 206 0
-185 206 0
-186 206 0
-187 206 0
-206 147 148 149 150 151 152 153 154 155 156 157 158 159 160 161 162 163 164 165 166 167 168 169 170 171 172 173 174 175 176 177 178 179 180 181 182 184 185 186 187 0
-207 -208 0
-207 -209 0
-208 -209 0
207 208 209 0
-210 -211 0
-210 -212 0
-210 -213 0
-210 -214 0
-210 -215 0
-210 -216 0
-211 -212 0
-211 -213 0
-211 -214 0
-211 -215 0
-211 -216 0
-212 -213 0
-212 -214 0
-212 -215 0
-212 -216 0
-213 -214 0
-213 -215 0
-213 -216 0
-214 -215 0
-214 -216 0
-215 -216 0
210 211 212 213 214 215 216 0
-217 -218 0
-217 -219 0
-217 -220 0
-217 -221 0
-217 -222 0
-218 -219 0
-218 -220 0
-218 -221 0
-218 -222 0
-219 -220 0
-219 -221 0
-219 -222 0
-220 -221 0
-220 -222 0
-221 -222 0
217 218 219 220 221 222 0
-223 -224 0
-223 -225 0
-223 -226 0
-223 -227 0
-223 -228 0
-224 -225 0
-224 -226 0
-224 -227 0
-224 -228 0
-225 -226 0
-225 -227 0
-225 -228 0
-226 -227 0
-226 -228 0
-227 -228 0
223 224 225 226 227 228 0
-229 -230 0
229 230 0
-231 -232 0
-231 -233 0
-231 -234 0
-231 -235 0
-231 -236 0
-232 -233 0
-232 -234 0
-232 -235 0
-232 -236 0
-233 -234 0
-233 -235 0
-233 -236 0
-234 -235 0
-234 -236 0
-235 -236 0
231 232 233 234 235 236 0
-237 -238 0
237 238 0
-239 -240 0
239 240 0
-241 -242 0
241 242 0
-243 -244 0
243 244 0
-188 99 0
-188 207 0
-186 -101 0
-186 -99 -207 0
-186 -100 -208 0
-190 100 0
-190 208 0
-187 -99 0
-187 -100 0
-187 -209 0
-191 101 0
-191 209 0
245 186 187 0
-245 -99 207 0
245 -99 -207 0
-245 -100 208 0
245 -100 -208 0
-245 -101 209 0
245 -101 -209 0
-187 -103 0
-187 -108 0
-187 -210 0
-187 -212 0
-102 -212 0
-102 -213 0
-102 -214 0
-102 -215 0
-102 -216 0
-187 -102 211 0
-104 -210 0
-104 -211 0
-104 -214 0
-104 -215 0
-104 -216 0
-187 -104 213 0
-105 -210 0
-105 -211 0
-105 -212 0
-105 -215 0
-105 -216 0
-187 -105 214 0
-106 -210 0
-106 -211 0
-106 -212 0
-106 -213 0
-106 -216 0
-187 -106 215 0
-107 -210 0
-107 -211 0
-107 -212 0
-107 -213 0
-107 -214 0
-187 -107 216 0
-193 103 104 105 106 107 108 0
-193 211 212 213 214 215 216 0
-186 -102 0
-186 -108 0
-186 -210 0
-186 -211 0
-103 -210 0
-103 -213 0
-103 -214 0
-103 -215 0
-103 -216 0
-186 -103 212 0
-104 -210 0
-104 -211 0
-104 -214 0
-104 -215 0
-104 -216 0
-186 -104 213 0
-105 -210 0
-105 -211 0
-105 -212 0
-105 -215 0
-105 -216 0
-186 -105 214 0
-106 -210 0
-106 -211 0
-106 -212 0
-106 -213 0
-106 -216 0
-186 -106 215 0
-107 -210 0
-107 -211 0
-107 -212 0
-107 -213 0
-107 -214 0
-186 -107 216 0
-184 104 105 0
-184 212 213 0
246 187 186 0
-246 -102 210 0
246 -102 -210 0
-246 -103 211 0
246 -103 -211 0
-246 -104 212 0
246 -104 -212 0
-246 -105 213 0
246 -105 -213 0
-246 -106 214 0
246 -106 -214 0
-246 -107 215 0
246 -107 -215 0
-246 -108 216 0
246 -108 -216 0
-147 -110 0
-147 -111 0
-147 -112 0
-147 -113 0
-147 -114 0
-147 -217 0
-147 -218 0
-147 -219 0
-147 -221 0
-147 -222 0
-109 -218 0
-109 -219 0
-109 -222 0
-147 -109 220 0
-150 -110 0
-150 -111 0
-150 -112 0
-150 -113 0
-150 -114 0
-150 -217 0
-150 -218 0
-150 -219 0
-150 -220 0
-150 -222 0
-109 -218 0
-109 -219 0
-109 -222 0
-150 -109 221 0
-148 -109 0
-148 -111 0
-148 -112 0
-148 -113 0
-148 -114 0
-148 -217 0
-148 -218 0
-148 -219 0
-148 -221 0
-148 -222 0
-110 -217 0
-110 -219 0
-110 -222 0
-148 -110 220 0
-151 -109 0
-151 -111 0
-151 -112 0
-151 -113 0
-151 -114 0
-151 -217 0
-151 -218 0
-151 -219 0
-151 -220 0
-151 -222 0
-110 -217 0
-110 -219 0
-110 -222 0
-151 -110 221 0
-149 -109 0
-149 -110 0
-149 -112 0
-149 -113 0
-149 -114 0
-149 -217 0
-149 -218 0
-149 -219 0
-149 -221 0
-149 -222 0
-111 -217 0
-111 -218 0
-149 -111 220 0
-152 -109 0
-152 -110 0
-152 -112 0
-152 -113 0
-152 -114 0
-152 -217 0
-152 -218 0
-152 -219 0
-152 -220 0
-152 -222 0
-111 -217 0
-111 -218 0
-152 -111 221 0
-184 -109 0
-184 -110 0
-184 -112 0
-184 -113 0
-184 -114 0
-184 -217 0
-184 -218 0
-184 -219 0
-184 -220 0
-184 -221 0
-111 -217 0
-111 -218 0
-184 -111 222 0
-165 -109 0
-165 -110 0
-165 -111 0
-165 -113 0
-165 -114 0
-165 -218 0
-165 -219 0
-165 -220 0
-165 -221 0
-165 -222 0
-112 -221 0
-112 -222 0
-165 -112 217 0
-166 -109 0
-166 -110 0
-166 -111 0
-166 -113 0
-166 -114 0
-166 -217 0
-166 -219 0
-166 -220 0
-166 -221 0
-166 -222 0
-112 -221 0
-112 -222 0
-166 -112 218 0
-167 -109 0
-167 -110 0
-167 -111 0
-167 -113 0
-167 -114 0
-167 -217 0
-167 -218 0
-167 -220 0
-167 -221 0
-167 -222 0
-112 -221 0
-112 -222 0
-167 -112 219 0
-168 -109 0
-168 -110 0
-168 -111 0
-168 -112 0
-168 -114 0
-168 -218 0
-168 -219 0
-168 -220 0
-168 -221 0
-168 -222 0
-113 -220 0
-113 -222 0
-168 -113 217 0
-169 -109 0
-169 -110 0
-169 -111 0
-169 -112 0
-169 -114 0
-169 -217 0
-169 -219 0
-169 -220 0
-169 -221 0
-169 -222 0
-113 -220 0
-113 -222 0
-169 -113 218 0
-170 -109 0
-170 -110 0
-170 -111 0
-170 -112 0
-170 -114 0
-170 -217 0
-170 -218 0
-170 -220 0
-170 -221 0
-170 -222 0
-113 -220 0
-113 -222 0
-170 -113 219 0
247 147 150 148 151 149 152 184 165 166 167 168 169 170 0
-247 -109 217 0
247 -109 -217 0
-247 -110 218 0
247 -110 -218 0
-247 -111 219 0
247 -111 -219 0
-247 -112 220 0
247 -112 -220 0
-247 -113 221 0
247 -113 -221 0
-247 -114 222 0
247 -114 -222 0
-153 -116 0
-153 -117 0
-153 -118 0
-153 -119 0
-153 -120 0
-153 -223 0
-153 -224 0
-153 -225 0
-153 -227 0
-153 -228 0
-115 -224 0
-115 -225 0
-153 -115 226 0
-156 -116 0
-156 -117 0
-156 -118 0
-156 -119 0
-156 -120 0
-156 -223 0
-156 -224 0
-156 -225 0
-156 -226 0
-156 -228 0
-115 -224 0
-115 -225 0
-156 -115 227 0
-185 -116 0
-185 -117 0
-185 -118 0
-185 -119 0
-185 -120 0
-185 -223 0
-185 -224 0
-185 -225 0
-185 -226 0
-185 -227 0
-115 -224 0
-115 -225 0
-185 -115 228 0
-154 -115 0
-154 -117 0
-154 -118 0
-154 -119 0
-154 -120 0
-154 -223 0
-154 -224 0
-154 -225 0
-154 -227 0
-154 -228 0
-116 -223 0
-116 -225 0
-116 -228 0
-154 -116 226 0
-157 -115 0
-157 -117 0
-157 -118 0
-157 -119 0
-157 -120 0
-157 -223 0
-157 -224 0
-157 -225 0
-157 -226 0
-157 -228 0
-116 -223 0
-116 -225 0
-116 -228 0
-157 -116 227 0
-155 -115 0
-155 -116 0
-155 -118 0
-155 -119 0
-155 -120 0
-155 -223 0
-155 -224 0
-155 -225 0
-155 -227 0
-155 -228 0
-117 -223 0
-117 -224 0
-117 -228 0
-155 -117 226 0
-158 -115 0
-158 -116 0
-158 -118 0
-158 -119 0
-158 -120 0
-158 -223 0
-158 -224 0
-158 -225 0
-158 -226 0
-158 -228 0
-117 -223 0
-117 -224 0
-117 -228 0
-158 -117 227 0
-171 -115 0
-171 -116 0
-171 -117 0
-171 -119 0
-171 -120 0
-171 -224 0
-171 -225 0
-171 -226 0
-171 -227 0
-171 -228 0
-118 -227 0
-118 -228 0
-171 -118 223 0
-172 -115 0
-172 -116 0
-172 -117 0
-172 -119 0
-172 -120 0
-172 -223 0
-172 -225 0
-172 -226 0
-172 -227 0
-172 -228 0
-118 -227 0
-118 -228 0
-172 -118 224 0
-173 -115 0
-173 -116 0
-173 -117 0
-173 -119 0
-173 -120 0
-173 -223 0
-173 -224 0
-173 -226 0
-173 -227 0
-173 -228 0
-118 -227 0
-118 -228 0
-173 -118 225 0
-174 -115 0
-174 -116 0
-174 -117 0
-174 -118 0
-174 -120 0
-174 -224 0
-174 -225 0
-174 -226 0
-174 -227 0
-174 -228 0
-119 -226 0
-119 -228 0
-174 -119 223 0
-175 -115 0
-175 -116 0
-175 -117 0
-175 -118 0
-175 -120 0
-175 -223 0
-175 -225 0
-175 -226 0
-175 -227 0
-175 -228 0
-119 -226 0
-119 -228 0
-175 -119 224 0
-176 -115 0
-176 -116 0
-176 -117 0
-176 -118 0
-176 -120 0
-176 -223 0
-176 -224 0
-176 -226 0
-176 -227 0
-176 -228 0
-119 -226 0
-119 -228 0
-176 -119 225 0
248 153 156 185 154 157 155 158 171 172 173 174 175 176 0
-248 -115 223 0
248 -115 -223 0
-248 -116 224 0
248 -116 -224 0
-248 -117 225 0
248 -117 -225 0
-248 -118 226 0
248 -118 -226 0
-248 -119 227 0
248 -119 -227 0
-248 -120 228 0
248 -120 -228 0
-196 121 0
-196 229 0
-197 -230 0
-197 -121 229 0
-197 -122 229 0
-199 -122 0
-199 -229 0
-199 -121 230 0
249 197 199 0
-249 -121 229 0
249 -121 -229 0
-249 -122 230 0
249 -122 -230 0
-159 -124 0
-159 -125 0
-159 -126 0
-159 -127 0
-159 -128 0
-159 -231 0
-159 -232 0
-159 -233 0
-159 -235 0
-159 -236 0
-123 -232 0
-123 -233 0
-159 -123 234 0
-162 -124 0
-162 -125 0
-162 -126 0
-162 -127 0
-162 -128 0
-162 -231 0
-162 -232 0
-162 -233 0
-162 -234 0
-162 -236 0
-123 -232 0
-123 -233 0
-162 -123 235 0
-183 -124 0
-183 -125 0
-183 -126 0
-183 -127 0
-183 -128 0
-183 -231 0
-183 -232 0
-183 -233 0
-183 -234 0
-183 -235 0
-123 -232 0
-123 -233 0
-183 -123 236 0
-160 -123 0
-160 -125 0
-160 -126 0
-160 -127 0
-160 -128 0
-160 -231 0
-160 -232 0
-160 -233 0
-160 -235 0
-160 -236 0
-124 -231 0
-124 -233 0
-124 -236 0
-160 -124 234 0
-163 -123 0
-163 -125 0
-163 -126 0
-163 -127 0
-163 -128 0
-163 -231 0
-163 -232 0
-163 -233 0
-163 -234 0
-163 -236 0
-124 -231 0
-124 -233 0
-124 -236 0
-163 -124 235 0
-161 -123 0
-161 -124 0
-161 -126 0
-161 -127 0
-161 -128 0
-161 -231 0
-161 -232 0
-161 -233 0
-161 -235 0
-161 -236 0
-125 -231 0
-125 -232 0
-125 -236 0
-161 -125 234 0
-164 -123 0
-164 -124 0
-164 -126 0
-164 -127 0
-164 -128 0
-164 -231 0
-164 -232 0
-164 -233 0
-164 -234 0
-164 -236 0
-125 -231 0
-125 -232 0
-125 -236 0
-164 -125 235 0
-177 -123 0
-177 -124 0
-177 -125 0
-177 -127 0
-177 -128 0
-177 -232 0
-177 -233 0
-177 -234 0
-177 -235 0
-177 -236 0
-126 -235 0
-126 -236 0
-177 -126 231 0
-178 -123 0
-178 -124 0
-178 -125 0
-178 -127 0
-178 -128 0
-178 -231 0
-178 -233 0
-178 -234 0
-178 -235 0
-178 -236 0
-126 -235 0
-126 -236 0
-178 -126 232 0
-179 -123 0
-179 -124 0
-179 -125 0
-179 -127 0
-179 -128 0
-179 -231 0
-179 -232 0
-179 -234 0
-179 -235 0
-179 -236 0
-126 -235 0
-126 -236 0
-179 -126 233 0
-180 -123 0
-180 -124 0
-180 -125 0
-180 -126 0
-180 -128 0
-180 -232 0
-180 -233 0
-180 -234 0
-180 -235 0
-180 -236 0
-127 -234 0
-127 -236 0
-180 -127 231 0
-181 -123 0
-181 -124 0
-181 -125 0
-181 -126 0
-181 -128 0
-181 -231 0
-181 -233 0
-181 -234 0
-181 -235 0
-181 -236 0
-127 -234 0
-127 -236 0
-181 -127 232 0
-182 -123 0
-182 -124 0
-182 -125 0
-182 -126 0
-182 -128 0
-182 -231 0
-182 -232 0
-182 -234 0
-182 -235 0
-182 -236 0
-127 -234 0
-127 -236 0
-182 -127 233 0
250 159 162 183 160 163 161 164 177 178 179 180 181 182 0
-250 -123 231 0
250 -123 -231 0
-250 -124 232 0
250 -124 -232 0
-250 -125 233 0
250 -125 -233 0
-250 -126 234 0
250 -126 -234 0
-250 -127 235 0
250 -127 -235 0
-250 -128 236 0
250 -128 -236 0
-201 -238 0
-201 -129 237 0
-201 -130 237 0
-203 -130 0
-203 -237 0
-203 -129 238 0
251 201 203 0
-251 -129 237 0
251 -129 -237 0
-251 -130 238 0
251 -130 -238 0
-184 -240 0
-131 -240 0
-184 -131 239 0
-184 -132 239 0
252 184 0
-252 -131 239 0
252 -131 -239 0
-252 -132 240 0
252 -132 -240 0
-185 -242 0
-133 -242 0
-185 -133 241 0
-185 -134 241 0
253 185 0
-253 -133 241 0
253 -133 -241 0
-253 -134 242 0
253 -134 -242 0
-183 -244 0
-135 -244 0
-183 -135 243 0
-183 -136 243 0
254 183 0
-254 -135 243 0
254 -135 -243 0
-254 -136 244 0
254 -136 -244 0
-294 -295 0
-294 -295 0
-255 -256 0
-255 -257 0
-255 -258 0
-255 -259 0
-255 -260 0
-255 -273 0
-255 -274 0
-255 -275 0
-255 -276 0
-255 -277 0
-255 -278 0
-255 -292 0
-256 -257 0
-256 -258 0
-256 -259 0
-256 -260 0
-256 -273 0
-256 -274 0
-256 -275 0
-256 -276 0
-256 -277 0
-256 -278 0
-256 -292 0
-257 -258 0
-257 -259 0
-257 -260 0
-257 -273 0
-257 -274 0
-257 -275 0
-257 -276 0
-257 -277 0
-257 -278 0
-257 -292 0
-258 -259 0
-258 -260 0
-258 -273 0
-258 -274 0
-258 -275 0
-258 -276 0
-258 -277 0
-258 -278 0
-258 -292 0
-259 -260 0
-259 -273 0
-259 -274 0
-259 -275 0
-259 -276 0
-259 -277 0
-259 -278 0
-259 -292 0
-260 -273 0
-260 -274 0
-260 -275 0
-260 -276 0
-260 -277 0
-260 -278 0
-260 -292 0
-273 -274 0
-273 -275 0
-273 -276 0
-273 -277 0
-273 -278 0
-273 -292 0
-274 -275 0
-274 -276 0
-274 -277 0
-274 -278 0
-274 -292 0
-275 -276 0
-275 -277 0
-275 -278 0
-275 -292 0
-276 -277 0
-276 -278 0
-276 -292 0
-277 -278 0
-277 -292 0
-278 -292 0
-261 -262 0
-261 -263 0
-261 -264 0
-261 -265 0
-261 -266 0
-261 -279 0
-261 -280 0
-261 -281 0
-261 -282 0
-261 -283 0
-261 -284 0
-261 -293 0
-262 -263 0
-262 -264 0
-262 -265 0
-262 -266 0
-262 -279 0
-262 -280 0
-262 -281 0
-262 -282 0
-262 -283 0
-262 -284 0
-262 -293 0
-263 -264 0
-263 -265 0
-263 -266 0
-263 -279 0
-263 -280 0
-263 -281 0
-263 -282 0
-263 -283 0
-263 -284 0
-263 -293 0
-264 -265 0
-264 -266 0
-264 -279 0
-264 -280 0
-264 -281 0
-264 -282 0
-264 -283 0
-264 -284 0
-264 -293 0
-265 -266 0
-265 -279 0
-265 -280 0
-265 -281 0
-265 -282 0
-265 -283 0
-265 -284 0
-265 -293 0
-266 -279 0
-266 -280 0
-266 -281 0
-266 -282 0
-266 -283 0
-266 -284 0
-266 -293 0
-279 -280 0
-279 -281 0
-279 -282 0
-279 -283 0
-279 -284 0
-279 -293 0
-280 -281 0
-280 -282 0
-280 -283 0
-280 -284 0
-280 -293 0
-281 -282 0
-281 -283 0
-281 -284 0
-281 -293 0
-282 -283 0
-282 -284 0
-282 -293 0
-283 -284 0
-283 -293 0
-284 -293 0
-255 -256 0
-255 -257 0
-255 -261 0
-255 -262 0
-255 -263 0
-255 -267 0
-255 -268 0
-255 -269 0
-255 -273 0
-255 -274 0
-255 -275 0
-255 -279 0
-255 -280 0
-255 -281 0
-255 -285 0
-255 -286 0
-255 -287 0
-256 -257 0
-256 -261 0
-256 -262 0
-256 -263 0
-256 -267 0
-256 -268 0
-256 -269 0
-256 -273 0
-256 -274 0
-256 -275 0
-256 -279 0
-256 -280 0
-256 -281 0
-256 -285 0
-256 -286 0
-256 -287 0
-257 -261 0
-257 -262 0
-257 -263 0
-257 -267 0
-257 -268 0
-257 -269 0
-257 -273 0
-257 -274 0
-257 -275 0
-257 -279 0
-257 -280 0
-257 -281 0
-257 -285 0
-257 -286 0
-257 -287 0
-261 -262 0
-261 -263 0
-261 -267 0
-261 -268 0
-261 -269 0
-261 -273 0
-261 -274 0
-261 -275 0
-261 -279 0
-261 -280 0
-261 -281 0
-261 -285 0
-261 -286 0
-261 -287 0
-262 -263 0
-262 -267 0
-262 -268 0
-262 -269 0
-262 -273 0
-262 -274 0
-262 -275 0
-262 -279 0
-262 -280 0
-262 -281 0
-262 -285 0
-262 -286 0
-262 -287 0
-263 -267 0
-263 -268 0
-263 -269 0
-263 -273 0
-263 -274 0
-263 -275 0
-263 -279 0
-263 -280 0
-263 -281 0
-263 -285 0
-263 -286 0
-263 -287 0
-267 -268 0
-267 -269 0
-267 -273 0
-267 -274 0
-267 -275 0
-267 -279 0
-267 -280 0
-267 -281 0
-267 -285 0
-267 -286 0
-267 -287 0
-268 -269 0
-268 -273 0
-268 -274 0
-268 -275 0
-268 -279 0
-268 -280 0
-268 -281 0
-268 -285 0
-268 -286 0
-268 -287 0
-269 -273 0
-269 -274 0
-269 -275 0
-269 -279 0
-269 -280 0
-269 -281 0
-269 -285 0
-269 -286 0
-269 -287 0
-273 -274 0
-273 -275 0
-273 -279 0
-273 -280 0
-273 -281 0
-273 -285 0
-273 -286 0
-273 -287 0
-274 -275 0
-274 -279 0
-274 -280 0
-274 -281 0
-274 -285 0
-274 -286 0
-274 -287 0
-275 -279 0
-275 -280 0
-275 -281 0
-275 -285 0
-275 -286 0
-275 -287 0
-279 -280 0
-279 -281 0
-279 -285 0
-279 -286 0
-279 -287 0
-280 -281 0
-280 -285 0
-280 -286 0
-280 -287 0
-281 -285 0
-281 -286 0
-281 -287 0
-285 -286 0
-285 -287 0
-286 -287 0
-267 -268 0
-267 -269 0
-267 -270 0
-267 -271 0
-267 -272 0
-267 -285 0
-267 -286 0
-267 -287 0
-267 -288 0
-267 -289 0
-267 -290 0
-267 -291 0
-268 -269 0
-268 -270 0
-268 -271 0
-268 -272 0
-268 -285 0
-268 -286 0
-268 -287 0
-268 -288 0
-268 -289 0
-268 -290 0
-268 -291 0
-269 -270 0
-269 -271 0
-269 -272 0
-269 -285 0
-269 -286 0
-269 -287 0
-269 -288 0
-269 -289 0
-269 -290 0
-269 -291 0
-270 -271 0
-270 -272 0
-270 -285 0
-270 -286 0
-270 -287 0
-270 -288 0
-270 -289 0
-270 -290 0
-270 -291 0
-271 -272 0
-271 -285 0
-271 -286 0
-271 -287 0
-271 -288 0
-271 -289 0
-271 -290 0
-271 -291 0
-272 -285 0
-272 -286 0
-272 -287 0
-272 -288 0
-272 -289 0
-272 -290 0
-272 -291 0
-285 -286 0
-285 -287 0
-285 -288 0
-285 -289 0
-285 -290 0
-285 -291 0
-286 -287 0
-286 -288 0
-286 -289 0
-286 -290 0
-286 -291 0
-287 -288 0
-287 -289 0
-287 -290 0
-287 -291 0
-288 -289 0
-288 -290 0
-288 -291 0
-289 -290 0
-289 -291 0
-290 -291 0
-258 -259 0
-258 -260 0
-258 -264 0
-258 -265 0
-258 -266 0
-258 -270 0
-258 -271 0
-258 -272 0
-258 -276 0
-258 -277 0
-258 -278 0
-258 -282 0
-258 -283 0
-258 -284 0
-258 -288 0
-258 -289 0
-258 -290 0
-259 -260 0
-259 -264 0
-259 -265 0
-259 -266 0
-259 -270 0
-259 -271 0
-259 -272 0
-259 -276 0
-259 -277 0
-259 -278 0
-259 -282 0
-259 -283 0
-259 -284 0
-259 -288 0
-259 -289 0
-259 -290 0
-260 -264 0
-260 -265 0
-260 -266 0
-260 -270 0
-260 -271 0
-260 -272 0
-260 -276 0
-260 -277 0
-260 -278 0
-260 -282 0
-260 -283 0
-260 -284 0
-260 -288 0
-260 -289 0
-260 -290 0
-264 -265 0
-264 -266 0
-264 -270 0
-264 -271 0
-264 -272 0
-264 -276 0
-264 -277 0
-264 -278 0
-264 -282 0
-264 -283 0
-264 -284 0
-264 -288 0
-264 -289 0
-264 -290 0
-265 -266 0
-265 -270 0
-265 -271 0
-265 -272 0
-265 -276 0
-265 -277 0
-265 -278 0
-265 -282 0
-265 -283 0
-265 -284 0
-265 -288 0
-265 -289 0
-265 -290 0
-266 -270 0
-266 -271 0
-266 -272 0
-266 -276 0
-266 -277 0
-266 -278 0
-266 -282 0
-266 -283 0
-266 -284 0
-266 -288 0
-266 -289 0
-266 -290 0
-270 -271 0
-270 -272 0
-270 -276 0
-270 -277 0
-270 -278 0
-270 -282 0
-270 -283 0
-270 -284 0
-270 -288 0
-270 -289 0
-270 -290 0
-271 -272 0
-271 -276 0
-271 -277 0
-271 -278 0
-271 -282 0
-271 -283 0
-271 -284 0
-271 -288 0
-271 -289 0
-271 -290 0
-272 -276 0
-272 -277 0
-272 -278 0
-272 -282 0
-272 -283 0
-272 -284 0
-272 -288 0
-272 -289 0
-272 -290 0
-276 -277 0
-276 -278 0
-276 -282 0
-276 -283 0
-276 -284 0
-276 -288 0
-276 -289 0
-276 -290 0
-277 -278 0
-277 -282 0
-277 -283 0
-277 -284 0
-277 -288 0
-277 -289 0
-277 -290 0
-278 -282 0
-278 -283 0
-278 -284 0
-278 -288 0
-278 -289 0
-278 -290 0
-282 -283 0
-282 -284 0
-282 -288 0
-282 -289 0
-282 -290 0
-283 -284 0
-283 -288 0
-283 -289 0
-283 -290 0
-284 -288 0
-284 -289 0
-284 -290 0
-288 -289 0
-288 -290 0
-289 -290 0
255 256 257 258 259 260 261 262 263 264 265 266 267 268 269 270 271 272 273 274 275 276 277 278 279 280 281 282 283 284 285 286 287 288 289 290 291 292 293 294 295 0
-255 296 0
-258 296 0
-261 296 0
-264 296 0
-267 296 0
-270 296 0
-273 296 0
-276 296 0
-279 296 0
-282 296 0
-285 296 0
-288 296 0
-296 255 258 261 264 267 270 273 276 279 282 285 288 0
-291 297 0
-292 297 0
-293 297 0
-297 291 292 293 0
-256 298 0
-259 298 0
-262 298 0
-265 298 0
-268 298 0
-271 298 0
-274 298 0
-277 298 0
-280 298 0
-283 298 0
-286 298 0
-289 298 0
-298 256 259 262 265 268 271 274 277 280 283 286 289 0
-257 299 0
-260 299 0
-263 299 0
-266 299 0
-269 299 0
-272 299 0
-275 299 0
-278 299 0
-281 299 0
-284 299 0
-287 299 0
-290 299 0
-299 257 260 263 266 269 272 275 278 281 284 287 290 0
-255 300 0
-256 300 0
-257 300 0
-258 300 0
-259 300 0
-260 300 0
-261 300 0
-262 300 0
-263 300 0
-264 300 0
-265 300 0
-266 300 0
-267 300 0
-268 300 0
-269 300 0
-270 300 0
-271 300 0
-272 300 0
-273 300 0
-274 300 0
-275 300 0
-276 300 0
-277 300 0
-278 300 0
-279 300 0
-280 300 0
-281 300 0
-282 300 0
-283 300 0
-284 300 0
-285 300 0
-286 300 0
-287 300 0
-288 300 0
-289 300 0
-290 300 0
-300 255 256 257 258 259 260 261 262 263 264 265 266 267 268 269 270 271 272 273 274 275 276 277 278 279 280 281 282 283 284 285 286 287 288 289 290 0
-291 301 0
-293 301 0
-301 291 293 0
-261 302 0
-262 302 0
-263 302 0
-264 302 0
-265 302 0
-266 302 0
-267 302 0
-268 302 0
-269 302 0
-270 302 0
-271 302 0
-272 302 0
-279 302 0
-280 302 0
-281 302 0
-282 302 0
-283 302 0
-284 302 0
-285 302 0
-286 302 0
-287 302 0
-288 302 0
-289 302 0
-290 302 0
-291 302 0
-293 302 0
-294 302 0
-295 302 0
-302 261 262 263 264 265 266 267 268 269 270 271 272 279 280 281 282 283 284 285 286 287 288 289 290 291 293 294 295 0
-255 303 0
-256 303 0
-257 303 0
-258 303 0
-259 303 0
-260 303 0
-267 303 0
-268 303 0
-269 303 0
-270 303 0
-271 303 0
-272 303 0
-273 303 0
-274 303 0
-275 303 0
-276 303 0
-277 303 0
-278 303 0
-285 303 0
-286 303 0
-287 303 0
-288 303 0
-289 303 0
-290 303 0
-291 303 0
-292 303 0
-294 303 0
-295 303 0
-303 255 256 257 258 259 260 267 268 269 270 271 272 273 274 275 276 277 278 285 286 287 288 289 290 291 292 294 295 0
-258 304 0
-259 304 0
-260 304 0
-264 304 0
-265 304 0
-266 304 0
-270 304 0
-271 304 0
-272 304 0
-276 304 0
-277 304 0
-278 304 0
-282 304 0
-283 304 0
-284 304 0
-288 304 0
-289 304 0
-290 304 0
-304 258 259 260 264 265 266 270 271 272 276 277 278 282 283 284 288 289 290 0
-273 305 0
-274 305 0
-275 305 0
-279 305 0
-280 305 0
-281 305 0
-285 305 0
-286 305 0
-287 305 0
-305 273 274 275 279 280 281 285 286 287 0
-291 306 0
-292 306 0
-293 306 0
-294 306 0
-295 306 0
-306 291 292 293 294 295 0
-255 307 0
-256 307 0
-257 307 0
-261 307 0
-262 307 0
-263 307 0
-267 307 0
-268 307 0
-269 307 0
-307 255 256 257 261 262 263 267 268 269 0
-255 308 0
-256 308 0
-257 308 0
-258 308 0
-259 308 0
-260 308 0
-261 308 0
-262 308 0
-263 308 0
-264 308 0
-265 308 0
-266 308 0
-273 308 0
-274 308 0
-275 308 0
-276 308 0
-277 308 0
-278 308 0
-279 308 0
-280 308 0
-281 308 0
-282 308 0
-283 308 0
-284 308 0
-292 308 0
-293 308 0
-294 308 0
-295 308 0
-308 255 256 257 258 259 260 261 262 263 264 265 266 273 274 275 276 277 278 279 280 281 282 283 284 292 293 294 295 0
-276 309 0
-277 309 0
-278 309 0
-282 309 0
-283 309 0
-284 309 0
-288 309 0
-289 309 0
-290 309 0
-309 276 277 278 282 283 284 288 289 290 0
-255 310 0
-256 310 0
-257 310 0
-261 310 0
-262 310 0
-263 310 0
-267 310 0
-268 310 0
-269 310 0
-273 310 0
-274 310 0
-275 310 0
-279 310 0
-280 310 0
-281 310 0
-285 310 0
-286 310 0
-287 310 0
-291 310 0
-292 310 0
-293 310 0
-294 310 0
-295 310 0
-310 255 256 257 261 262 263 267 268 269 273 274 275 279 280 281 285 286 287 291 292 293 294 295 0
-258 311 0
-259 311 0
-260 311 0
-264 311 0
-265 311 0
-266 311 0
-270 311 0
-271 311 0
-272 311 0
-311 258 259 260 264 265 266 270 271 272 0
-255 312 0
-256 312 0
-257 312 0
-258 312 0
-259 312 0
-260 312 0
-261 312 0
-262 312 0
-263 312 0
-264 312 0
-265 312 0
-266 312 0
-267 312 0
-268 312 0
-269 312 0
-270 312 0
-271 312 0
-272 312 0
-273 312 0
-274 312 0
-275 312 0
-276 312 0
-277 312 0
-278 312 0
-279 312 0
-280 312 0
-281 312 0
-282 312 0
-283 312 0
-284 312 0
-285 312 0
-286 312 0
-287 312 0
-288 312 0
-289 312 0
-290 312 0
-291 312 0
-293 312 0
-294 312 0
-295 312 0
-312 255 256 257 258 259 260 261 262 263 264 265 266 267 268 269 270 271 272 273 274 275 276 277 278 279 280 281 282 283 284 285 286 287 288 289 290 291 293 294 295 0
-255 313 0
-256 313 0
-257 313 0
-258 313 0
-259 313 0
-260 313 0
-261 313 0
-262 313 0
-263 313 0
-264 313 0
-265 313 0
-266 313 0
-267 313 0
-268 313 0
-269 313 0
-270 313 0
-271 313 0
-272 313 0
-273 313 0
-274 313 0
-275 313 0
-276 313 0
-277 313 0
-278 313 0
-279 313 0
-280 313 0
-281 313 0
-282 313 0
-283 313 0
-284 313 0
-285 313 0
-286 313 0
-287 313 0
-288 313 0
-289 313 0
-290 313 0
-291 313 0
-292 313 0
-294 313 0
-295 313 0
-313 255 256 257 258 259 260 261 262 263 264 265 266 267 268 269 270 271 272 273 274 275 276 277 278 279 280 281 282 283 284 285 286 287 288 289 290 291 292 294 295 0
-255 314 0
-256 314 0
-257 314 0
-258 314 0
-259 314 0
-260 314 0
-261 314 0
-262 314 0
-263 314 0
-264 314 0
-265 314 0
-266 314 0
-267 314 0
-268 314 0
-269 314 0
-270 314 0
-271 314 0
-272 314 0
-273 314 0
-274 314 0
-275 314 0
-276 314 0
-277 314 0
-278 314 0
-279 314 0
-280 314 0
-281 314 0
-282 314 0
-283 314 0
-284 314 0
-285 314 0
-286 314 0
-287 314 0
-288 314 0
-289 314 0
-290 314 0
-292 314 0
-293 314 0
-294 314 0
-295 314 0
-314 255 256 257 258 259 260 261 262 263 264 265 266 267 268 269 270 271 272 273 274 275 276 277 278 279 280 281 282 283 284 285 286 287 288 289 290 292 293 294 295 0
-315 -316 0
-315 -317 0
-316 -317 0
315 316 317 0
-318 -319 0
-318 -320 0
-318 -321 0
-318 -322 0
-318 -323 0
-318 -324 0
-319 -320 0
-319 -321 0
-319 -322 0
-319 -323 0
-319 -324 0
-320 -321 0
-320 -322 0
-320 -323 0
-320 -324 0
-321 -322 0
-321 -323 0
-321 -324 0
-322 -323 0
-322 -324 0
-323 -324 0
318 319 320 321 322 323 324 0
-325 -326 0
-325 -327 0
-325 -328 0
-325 -329 0
-325 -330 0
-326 -327 0
-326 -328 0
-326 -329 0
-326 -330 0
-327 -328 0
-327 -329 0
-327 -330 0
-328 -329 0
-328 -330 0
-329 -330 0
325 326 327 328 329 330 0
-331 -332 0
-331 -333 0
-331 -334 0
-331 -335 0
-331 -336 0
-332 -333 0
-332 -334 0
-332 -335 0
-332 -336 0
-333 -334 0
-333 -335 0
-333 -336 0
-334 -335 0
-334 -336 0
-335 -336 0
331 332 333 334 335 336 0
-337 -338 0
337 338 0
-339 -340 0
-339 -341 0
-339 -342 0
-339 -343 0
-339 -344 0
-340 -341 0
-340 -342 0
-340 -343 0
-340 -344 0
-341 -342 0
-341 -343 0
-341 -344 0
-342 -343 0
-342 -344 0
-343 -344 0
339 340 341 342 343 344 0
-345 -346 0
345 346 0
-347 -348 0
347 348 0
-349 -350 0
349 350 0
-351 -352 0
351 352 0
-296 207 0
-296 315 0
-294 -209 0
-294 -207 -315 0
-294 -208 -316 0
-298 208 0
-298 316 0
-295 -207 0
-295 -208 0
-295 -317 0
-299 209 0
-299 317 0
353 294 295 0
-353 -207 315 0
353 -207 -315 0
-353 -208 316 0
353 -208 -316 0
-353 -209 317 0
353 -209 -317 0
-295 -211 0
-295 -216 0
-295 -318 0
-295 -320 0
-210 -320 0
-210 -321 0
-210 -322 0
-210 -323 0
-210 -324 0
-295 -210 319 0
-212 -318 0
-212 -319 0
-212 -322 0
-212 -323 0
-212 -324 0
-295 -212 321 0
-213 -318 0
-213 -319 0
-213 -320 0
-213 -323 0
-213 -324 0
-295 -213 322 0
-214 -318 0
-214 -319 0
-214 -320 0
-214 -321 0
-214 -324 0
-295 -214 323 0
-215 -318 0
-215 -319 0
-215 -320 0
-215 -321 0
-215 -322 0
-295 -215 324 0
-301 211 212 213 214 215 216 0
-301 319 320 321 322 323 324 0
-294 -210 0
-294 -216 0
-294 -318 0
-294 -319 0
-211 -318 0
-211 -321 0
-211 -322 0
-211 -323 0
-211 -324 0
-294 -211 320 0
-212 -318 0
-212 -319 0
-212 -322 0
-212 -323 0
-212 -324 0
-294 -212 321 0
-213 -318 0
-213 -319 0
-213 -320 0
-213 -323 0
-213 -324 0
-294 -213 322 0
-214 -318 0
-214 -319 0
-214 -320 0
-214 -321 0
-214 -324 0
-294 -214 323 0
-215 -318 0
-215 -319 0
-215 -320 0
-215 -321 0
-215 -322 0
-294 -215 324 0
-292 212 213 0
-292 320 321 0
354 295 294 0
-354 -210 318 0
354 -210 -318 0
-354 -211 319 0
354 -211 -319 0
-354 -212 320 0
354 -212 -320 0
-354 -213 321 0
354 -213 -321 0
-354 -214 322 0
354 -214 -322 0
-354 -215 323 0
354 -215 -323 0
-354 -216 324 0
354 -216 -324 0
-255 -218 0
-255 -219 0
-255 -220 0
-255 -221 0
-255 -222 0
-255 -325 0
-255 -326 0
-255 -327 0
-255 -329 0
-255 -330 0
-217 -326 0
-217 -327 0
-217 -330 0
-255 -217 328 0
-258 -218 0
-258 -219 0
-258 -220 0
-258 -221 0
-258 -222 0
-258 -325 0
-258 -326 0
-258 -327 0
-258 -328 0
-258 -330 0
-217 -326 0
-217 -327 0
-217 -330 0
-258 -217 329 0
-256 -217 0
-256 -219 0
-256 -220 0
-256 -221 0
-256 -222 0
-256 -325 0
-256 -326 0
-256 -327 0
-256 -329 0
-256 -330 0
-218 -325 0
-218 -327 0
-218 -330 0
-256 -218 328 0
-259 -217 0
-259 -219 0
-259 -220 0
-259 -221 0
-259 -222 0
-259 -325 0
-259 -326 0
-259 -327 0
-259 -328 0
-259 -330 0
-218 -325 0
-218 -327 0
-218 -330 0
-259 -218 329 0
-257 -217 0
-257 -218 0
-257 -220 0
-257 -221 0
-257 -222 0
-257 -325 0
-257 -326 0
-257 -327 0
-257 -329 0
-257 -330 0
-219 -325 0
-219 -326 0
-257 -219 328 0
-260 -217 0
-260 -218 0
-260 -220 0
-260 -221 0
-260 -222 0
-260 -325 0
-260 -326 0
-260 -327 0
-260 -328 0
-260 -330 0
-219 -325 0
-219 -326 0
-260 -219 329 0
-292 -217 0
-292 -218 0
-292 -220 0
-292 -221 0
-292 -222 0
-292 -325 0
-292 -326 0
-292 -327 0
-292 -328 0
-292 -329 0
-219 -325 0
-219 -326 0
-292 -219 330 0
-273 -217 0
-273 -218 0
-273 -219 0
-273 -221 0
-273 -222 0
-273 -326 0
-273 -327 0
-273 -328 0
-273 -329 0
-273 -330 0
-220 -329 0
-220 -330 0
-273 -220 325 0
-274 -217 0
-274 -218 0
-274 -219 0
-274 -221 0
-274 -222 0
-274 -325 0
-274 -327 0
-274 -328 0
-274 -329 0
-274 -330 0
-220 -329 0
-220 -330 0
-274 -220 326 0
-275 -217 0
-275 -218 0
-275 -219 0
-275 -221 0
-275 -222 0
-275 -325 0
-275 -326 0
-275 -328 0
-275 -329 0
-275 -330 0
-220 -329 0
-220 -330 0
-275 -220 327 0
-276 -217 0
-276 -218 0
-276 -219 0
-276 -220 0
-276 -222 0
-276 -326 0
-276 -327 0
-276 -328 0
-276 -329 0
-276 -330 0
-221 -328 0
-221 -330 0
-276 -221 325 0
-277 -217 0
-277 -218 0
-277 -219 0
-277 -220 0
-277 -222 0
-277 -325 0
-277 -327 0
-277 -328 0
-277 -329 0
-277 -330 0
-221 -328 0
-221 -330 0
-277 -221 326 0
-278 -217 0
-278 -218 0
-278 -219 0
-278 -220 0
-278 -222 0
-278 -325 0
-278 -326 0
-278 -328 0
-278 -329 0
-278 -330 0
-221 -328 0
-221 -330 0
-278 -221 327 0
355 255 258 256 259 257 260 292 273 274 275 276 277 278 0
-355 -217 325 0
355 -217 -325 0
-355 -218 326 0
355 -218 -326 0
-355 -219 327 0
355 -219 -327 0
-355 -220 328 0
355 -220 -328 0
-355 -221 329 0
355 -221 -329 0
-355 -222 330 0
355 -222 -330 0
-261 -224 0
-261 -225 0
-261 -226 0
-261 -227 0
-261 -228 0
-261 -331 0
-261 -332 0
-261 -333 0
-261 -335 0
-261 -336 0
-223 -332 0
-223 -333 0
-261 -223 334 0
-264 -224 0
-264 -225 0
-264 -226 0
-264 -227 0
-264 -228 0
-264 -331 0
-264 -332 0
-264 -333 0
-264 -334 0
-264 -336 0
-223 -332 0
-223 -333 0
-264 -223 335 0
-293 -224 0
-293 -225 0
-293 -226 0
-293 -227 0
-293 -228 0
-293 -331 0
-293 -332 0
-293 -333 0
-293 -334 0
-293 -335 0
-223 -332 0
-223 -333 0
-293 -223 336 0
-262 -223 0
-262 -225 0
-262 -226 0
-262 -227 0
-262 -228 0
-262 -331 0
-262 -332 0
-262 -333 0
-262 -335 0
-262 -336 0
-224 -331 0
-224 -333 0
-224 -336 0
-262 -224 334 0
-265 -223 0
-265 -225 0
-265 -226 0
-265 -227 0
-265 -228 0
-265 -331 0
-265 -332 0
-265 -333 0
-265 -334 0
-265 -336 0
-224 -331 0
-224 -333 0
-224 -336 0
-265 -224 335 0
-263 -223 0
-263 -224 0
-263 -226 0
-263 -227 0
-263 -228 0
-263 -331 0
-263 -332 0
-263 -333 0
-263 -335 0
-263 -336 0
-225 -331 0
-225 -332 0
-225 -336 0
-263 -225 334 0
-266 -223 0
-266 -224 0
-266 -226 0
-266 -227 0
-266 -228 0
-266 -331 0
-266 -332 0
-266 -333 0
-266 -334 0
-266 -336 0
-225 -331 0
-225 -332 0
-225 -336 0
-266 -225 335 0
-279 -223 0
-279 -224 0
-279 -225 0
-279 -227 0
-279 -228 0
-279 -332 0
-279 -333 0
-279 -334 0
-279 -335 0
-279 -336 0
-226 -335 0
-226 -336 0
-279 -226 331 0
-280 -223 0
-280 -224 0
-280 -225 0
-280 -227 0
-280 -228 0
-280 -331 0
-280 -333 0
-280 -334 0
-280 -335 0
-280 -336 0
-226 -335 0
-226 -336 0
-280 -226 332 0
-281 -223 0
-281 -224 0
-281 -225 0
-281 -227 0
-281 -228 0
-281 -331 0
-281 -332 0
-281 -334 0
-281 -335 0
-281 -336 0
-226 -335 0
-226 -336 0
-281 -226 333 0
-282 -223 0
-282 -224 0
-282 -225 0
-282 -226 0
-282 -228 0
-282 -332 0
-282 -333 0
-282 -334 0
-282 -335 0
-282 -336 0
-227 -334 0
-227 -336 0
-282 -227 331 0
-283 -223 0
-283 -224 0
-283 -225 0
-283 -226 0
-283 -228 0
-283 -331 0
-283 -333 0
-283 -334 0
-283 -335 0
-283 -336 0
-227 -334 0
-227 -336 0
-283 -227 332 0
-284 -223 0
-284 -224 0
-284 -225 0
-284 -226 0
-284 -228 0
-284 -331 0
-284 -332 0
-284 -334 0
-284 -335 0
-284 -336 0
-227 -334 0
-227 -336 0
-284 -227 333 0
356 261 264 293 262 265 263 266 279 280 281 282 283 284 0
-356 -223 331 0
356 -223 -331 0
-356 -224 332 0
356 -224 -332 0
-356 -225 333 0
356 -225 -333 0
-356 -226 334 0
356 -226 -334 0
-356 -227 335 0
356 -227 -335 0
-356 -228 336 0
356 -228 -336 0
-304 229 0
-304 337 0
-305 -338 0
-305 -229 337 0
-305 -230 337 0
-307 -230 0
-307 -337 0
-307 -229 338 0
357 305 307 0
-357 -229 337 0
357 -229 -337 0
-357 -230 338 0
357 -230 -338 0
-267 -232 0
-267 -233 0
-267 -234 0
-267 -235 0
-267 -236 0
-267 -339 0
-267 -340 0
-267 -341 0
-267 -343 0
-267 -344 0
-231 -340 0
-231 -341 0
-267 -231 342 0
-270 -232 0
-270 -233 0
-270 -234 0
-270 -235 0
-270 -236 0
-270 -339 0
-270 -340 0
-270 -341 0
-270 -342 0
-270 -344 0
-231 -340 0
-231 -341 0
-270 -231 343 0
-291 -232 0
-291 -233 0
-291 -234 0
-291 -235 0
-291 -236 0
-291 -339 0
-291 -340 0
-291 -341 0
-291 -342 0
-291 -343 0
-231 -340 0
-231 -341 0
-291 -231 344 0
-268 -231 0
-268 -233 0
-268 -234 0
-268 -235 0
-268 -236 0
-268 -339 0
-268 -340 0
-268 -341 0
-268 -343 0
-268 -344 0
-232 -339 0
-232 -341 0
-232 -344 0
-268 -232 342 0
-271 -231 0
-271 -233 0
-271 -234 0
-271 -235 0
-271 -236 0
-271 -339 0
-271 -340 0
-271 -341 0
-271 -342 0
-271 -344 0
-232 -339 0
-232 -341 0
-232 -344 0
-271 -232 343 0
-269 -231 0
-269 -232 0
-269 -234 0
-269 -235 0
-269 -236 0
-269 -339 0
-269 -340 0
-269 -341 0
-269 -343 0
-269 -344 0
-233 -339 0
-233 -340 0
-233 -344 0
-269 -233 342 0
-272 -231 0
-272 -232 0
-272 -234 0
-272 -235 0
-272 -236 0
-272 -339 0
-272 -340 0
-272 -341 0
-272 -342 0
-272 -344 0
-233 -339 0
-233 -340 0
-233 -344 0
-272 -233 343 0
-285 -231 0
-285 -232 0
-285 -233 0
-285 -235 0
-285 -236 0
-285 -340 0
-285 -341 0
-285 -342 0
-285 -343 0
-285 -344 0
-234 -343 0
-234 -344 0
-285 -234 339 0
-286 -231 0
-286 -232 0
-286 -233 0
-286 -235 0
-286 -236 0
-286 -339 0
-286 -341 0
-286 -342 0
-286 -343 0
-286 -344 0
-234 -343 0
-234 -344 0
-286 -234 340 0
-287 -231 0
-287 -232 0
-287 -233 0
-287 -235 0
-287 -236 0
-287 -339 0
-287 -340 0
-287 -342 0
-287 -343 0
-287 -344 0
-234 -343 0
-234 -344 0
-287 -234 341 0
-288 -231 0
-288 -232 0
-288 -233 0
-288 -234 0
-288 -236 0
-288 -340 0
-288 -341 0
-288 -342 0
-288 -343 0
-288 -344 0
-235 -342 0
-235 -344 0
-288 -235 339 0
-289 -231 0
-289 -232 0
-289 -233 0
-289 -234 0
-289 -236 0
-289 -339 0
-289 -341 0
-289 -342 0
-289 -343 0
-289 -344 0
-235 -342 0
-235 -344 0
-289 -235 340 0
-290 -231 0
-290 -232 0
-290 -233 0
-290 -234 0
-290 -236 0
-290 -339 0
-290 -340 0
-290 -342 0
-290 -343 0
-290 -344 0
-235 -342 0
-235 -344 0
-290 -235 341 0
358 267 270 291 268 271 269 272 285 286 287 288 289 290 0
-358 -231 339 0
358 -231 -339 0
-358 -232 340 0
358 -232 -340 0
-358 -233 341 0
358 -233 -341 0
-358 -234 342 0
358 -234 -342 0
-358 -235 343 0
358 -235 -343 0
-358 -236 344 0
358 -236 -344 0
-309 -346 0
-309 -237 345 0
-309 -238 345 0
-311 -238 0
-311 -345 0
-311 -237 346 0
359 309 311 0
-359 -237 345 0
359 -237 -345 0
-359 -238 346 0
359 -238 -346 0
-292 -348 0
-239 -348 0
-292 -239 347 0
-292 -240 347 0
360 292 0
-360 -239 347 0
360 -239 -347 0
-360 -240 348 0
360 -240 -348 0
-293 -350 0
-241 -350 0
-293 -241 349 0
-293 -242 349 0
361 293 0
-361 -241 349 0
361 -241 -349 0
-361 -242 350 0
361 -242 -350 0
-291 -352 0
-243 -352 0
-291 -243 351 0
-291 -244 351 0
362 291 0
-362 -243 351 0
362 -243 -351 0
-362 -244 352 0
362 -244 -352 0
-402 -403 0
-402 -403 0
-363 -364 0
-363 -365 0
-363 -366 0
-363 -367 0
-363 -368 0
-363 -381 0
-363 -382 0
-363 -383 0
-363 -384 0
-363 -385 0
-363 -386 0
-363 -400 0
-364 -365 0
-364 -366 0
-364 -367 0
-364 -368 0
-364 -381 0
-364 -382 0
-364 -383 0
-364 -384 0
-364 -385 0
-364 -386 0
-364 -400 0
-365 -366 0
-365 -367 0
-365 -368 0
-365 -381 0
-365 -382 0
-365 -383 0
-365 -384 0
-365 -385 0
-365 -386 0
-365 -400 0
-366 -367 0
-366 -368 0
-366 -381 0
-366 -382 0
-366 -383 0
-366 -384 0
-366 -385 0
-366 -386 0
-366 -400 0
-367 -368 0
-367 -381 0
-367 -382 0
-367 -383 0
-367 -384 0
-367 -385 0
-367 -386 0
-367 -400 0
-368 -381 0
-368 -382 0
-368 -383 0
-368 -384 0
-368 -385 0
-368 -386 0
-368 -400 0
-381 -382 0
-381 -383 0
-381 -384 0
-381 -385 0
-381 -386 0
-381 -400 0
-382 -383 0
-382 -384 0
-382 -385 0
-382 -386 0
-382 -400 0
-383 -384 0
-383 -385 0
-383 -386 0
-383 -400 0
-384 -385 0
-384 -386 0
-384 -400 0
-385 -386 0
-385 -400 0
-386 -400 0
-369 -370 0
-369 -371 0
-369 -372 0
-369 -373 0
-369 -374 0
-369 -387 0
-369 -388 0
-369 -389 0
-369 -390 0
-369 -391 0
-369 -392 0
-369 -401 0
-370 -371 0
-370 -372 0
-370 -373 0
-370 -374 0
-370 -387 0
-370 -388 0
-370 -389 0
-370 -390 0
-370 -391 0
-370 -392 0
-370 -401 0
-371 -372 0
-371 -373 0
-371 -374 0
-371 -387 0
-371 -388 0
-371 -389 0
-371 -390 0
-371 -391 0
-371 -392 0
-371 -401 0
-372 -373 0
-372 -374 0
-372 -387 0
-372 -388 0
-372 -389 0
-372 -390 0
-372 -391 0
-372 -392 0
-372 -401 0
-373 -374 0
-373 -387 0
-373 -388 0
-373 -389 0
-373 -390 0
-373 -391 0
-373 -392 0
-373 -401 0
-374 -387 0
-374 -388 0
-374 -389 0
-374 -390 0
-374 -391 0
-374 -392 0
-374 -401 0
-387 -388 0
-387 -389 0
-387 -390 0
-387 -391 0
-387 -392 0
-387 -401 0
-388 -389 0
-388 -390 0
-388 -391 0
-388 -392 0
-388 -401 0
-389 -390 0
-389 -391 0
-389 -392 0
-389 -401 0
-390 -391 0
-390 -392 0
-390 -401 0
-391 -392 0
-391 -401 0
-392 -401 0
-363 -364 0
-363 -365 0
-363 -369 0
-363 -370 0
-363 -371 0
-363 -375 0
-363 -376 0
-363 -377 0
-363 -381 0
-363 -382 0
-363 -383 0
-363 -387 0
-363 -388 0
-363 -389 0
-363 -393 0
-363 -394 0
-363 -395 0
-364 -365 0
-364 -369 0
-364 -370 0
-364 -371 0
-364 -375 0
-364 -376 0
-364 -377 0
-364 -381 0
-364 -382 0
-364 -383 0
-364 -387 0
-364 -388 0
-364 -389 0
-364 -393 0
-364 -394 0
-364 -395 0
-365 -369 0
-365 -370 0
-365 -371 0
-365 -375 0
-365 -376 0
-365 -377 0
-365 -381 0
-365 -382 0
-365 -383 0
-365 -387 0
-365 -388 0
-365 -389 0
-365 -393 0
-365 -394 0
-365 -395 0
-369 -370 0
-369 -371 0
-369 -375 0
-369 -376 0
-369 -377 0
-369 -381 0
-369 -382 0
-369 -383 0
-369 -387 0
-369 -388 0
-369 -389 0
-369 -393 0
-369 -394 0
-369 -395 0
-370 -371 0
-370 -375 0
-370 -376 0
-370 -377 0
-370 -381 0
-370 -382 0
-370 -383 0
-370 -387 0
-370 -388 0
-370 -389 0
-370 -393 0
-370 -394 0
-370 -395 0
-371 -375 0
-371 -376 0
-371 -377 0
-371 -381 0
-371 -382 0
-371 -383 0
-371 -387 0
-371 -388 0
-371 -389 0
-371 -393 0
-371 -394 0
-371 -395 0
-375 -376 0
-375 -377 0
-375 -381 0
-375 -382 0
-375 -383 0
-375 -387 0
-375 -388 0
-375 -389 0
-375 -393 0
-375 -394 0
-375 -395 0
-376 -377 0
-376 -381 0
-376 -382 0
-376 -383 0
-376 -387 0
-376 -388 0
-376 -389 0
-376 -393 0
-376 -394 0
-376 -395 0
-377 -381 0
-377 -382 0
-377 -383 0
-377 -387 0
-377 -388 0
-377 -389 0
-377 -393 0
-377 -394 0
-377 -395 0
-381 -382 0
-381 -383 0
-381 -387 0
-381 -388 0
-381 -389 0
-381 -393 0
-381 -394 0
-381 -395 0
-382 -383 0
-382 -387 0
-382 -388 0
-382 -389 0
-382 -393 0
-382 -394 0
-382 -395 0
-383 -387 0
-383 -388 0
-383 -389 0
-383 -393 0
-383 -394 0
-383 -395 0
-387 -388 0
-387 -389 0
-387 -393 0
-387 -394 0
-387 -395 0
-388 -389 0
-388 -393 0
-388 -394 0
-388 -395 0
-389 -393 0
-389 -394 0
-389 -395 0
-393 -394 0
-393 -395 0
-394 -395 0
-375 -376 0
-375 -377 0
-375 -378 0
-375 -379 0
-375 -380 0
-375 -393 0
-375 -394 0
-375 -395 0
-375 -396 0
-375 -397 0
-375 -398 0
-375 -399 0
-376 -377 0
-376 -378 0
-376 -379 0
-376 -380 0
-376 -393 0
-376 -394 0
-376 -395 0
-376 -396 0
-376 -397 0
-376 -398 0
-376 -399 0
-377 -378 0
-377 -379 0
-377 -380 0
-377 -393 0
-377 -394 0
-377 -395 0
-377 -396 0
-377 -397 0
-377 -398 0
-377 -399 0
-378 -379 0
-378 -380 0
-378 -393 0
-378 -394 0
-378 -395 0
-378 -396 0
-378 -397 0
-378 -398 0
-378 -399 0
-379 -380 0
-379 -393 0
-379 -394 0
-379 -395 0
-379 -396 0
-379 -397 0
-379 -398 0
-379 -399 0
-380 -393 0
-380 -394 0
-380 -395 0
-380 -396 0
-380 -397 0
-380 -398 0
-380 -399 0
-393 -394 0
-393 -395 0
-393 -396 0
-393 -397 0
-393 -398 0
-393 -399 0
-394 -395 0
-394 -396 0
-394 -397 0
-394 -398 0
-394 -399 0
-395 -396 0
-395 -397 0
-395 -398 0
-395 -399 0
-396 -397 0
-396 -398 0
-396 -399 0
-397 -398 0
-397 -399 0
-398 -399 0
-366 -367 0
-366 -368 0
-366 -372 0
-366 -373 0
-366 -374 0
-366 -378 0
-366 -379 0
-366 -380 0
-366 -384 0
-366 -385 0
-366 -386 0
-366 -390 0
-366 -391 0
-366 -392 0
-366 -396 0
-366 -397 0
-366 -398 0
-367 -368 0
-367 -372 0
-367 -373 0
-367 -374 0
-367 -378 0
-367 -379 0
-367 -380 0
-367 -384 0
-367 -385 0
-367 -386 0
-367 -390 0
-367 -391 0
-367 -392 0
-367 -396 0
-367 -397 0
-367 -398 0
-368 -372 0
-368 -373 0
-368 -374 0
-368 -378 0
-368 -379 0
-368 -380 0
-368 -384 0
-368 -385 0
-368 -386 0
-368 -390 0
-368 -391 0
-368 -392 0
-368 -396 0
-368 -397 0
-368 -398 0
-372 -373 0
-372 -374 0
-372 -378 0
-372 -379 0
-372 -380 0
-372 -384 0
-372 -385 0
-372 -386 0
-372 -390 0
-372 -391 0
-372 -392 0
-372 -396 0
-372 -397 0
-372 -398 0
-373 -374 0
-373 -378 0
-373 -379 0
-373 -380 0
-373 -384 0
-373 -385 0
-373 -386 0
-373 -390 0
-373 -391 0
-373 -392 0
-373 -396 0
-373 -397 0
-373 -398 0
-374 -378 0
-374 -379 0
-374 -380 0
-374 -384 0
-374 -385 0
-374 -386 0
-374 -390 0
-374 -391 0
-374 -392 0
-374 -396 0
-374 -397 0
-374 -398 0
-378 -379 0
-378 -380 0
-378 -384 0
-378 -385 0
-378 -386 0
-378 -390 0
-378 -391 0
-378 -392 0
-378 -396 0
-378 -397 0
-378 -398 0
-379 -380 0
-379 -384 0
-379 -385 0
-379 -386 0
-379 -390 0
-379 -391 0
-379 -392 0
-379 -396 0
-379 -397 0
-379 -398 0
-380 -384 0
-380 -385 0
-380 -386 0
-380 -390 0
-380 -391 0
-380 -392 0
-380 -396 0
-380 -397 0
-380 -398 0
-384 -385 0
-384 -386 0
-384 -390 0
-384 -391 0
-384 -392 0
-384 -396 0
-384 -397 0
-384 -398 0
-385 -386 0
-385 -390 0
-385 -391 0
-385 -392 0
-385 -396 0
-385 -397 0
-385 -398 0
-386 -390 0
-386 -391 0
-386 -392 0
-386 -396 0
-386 -397 0
-386 -398 0
-390 -391 0
-390 -392 0
-390 -396 0
-390 -397 0
-390 -398 0
-391 -392 0
-391 -396 0
-391 -397 0
-391 -398 0
-392 -396 0
-392 -397 0
-392 -398 0
-396 -397 0
-396 -398 0
-397 -398 0
363 364 365 366 367 368 369 370 371 372 373 374 375 376 377 378 379 380 381 382 383 384 385 386 387 388 389 390 391 392 393 394 395 396 397 398 399 400 401 402 403 0
-363 404 0
-366 404 0
-369 404 0
-372 404 0
-375 404 0
-378 404 0
-381 404 0
-384 404 0
-387 404 0
-390 404 0
-393 404 0
-396 404 0
-404 363 366 369 372 375 378 381 384 387 390 393 396 0
-399 405 0
-400 405 0
-401 405 0
-405 399 400 401 0
-364 406 0
-367 406 0
-370 406 0
-373 406 0
-376 406 0
-379 406 0
-382 406 0
-385 406 0
-388 406 0
-391 406 0
-394 406 0
-397 406 0
-406 364 367 370 373 376 379 382 385 388 391 394 397 0
-365 407 0
-368 407 0
-371 407 0
-374 407 0
-377 407 0
-380 407 0
-383 407 0
-386 407 0
-389 407 0
-392 407 0
-395 407 0
-398 407 0
-407 365 368 371 374 377 380 383 386 389 392 395 398 0
-363 408 0
-364 408 0
-365 408 0
-366 408 0
-367 408 0
-368 408 0
-369 408 0
-370 408 0
-371 408 0
-372 408 0
-373 408 0
-374 408 0
-375 408 0
-376 408 0
-377 408 0
-378 408 0
-379 408 0
-380 408 0
-381 408 0
-382 408 0
-383 408 0
-384 408 0
-385 408 0
-386 408 0
-387 408 0
-388 408 0
-389 408 0
-390 408 0
-391 408 0
-392 408 0
-393 408 0
-394 408 0
-395 408 0
-396 408 0
-397 408 0
-398 408 0
-408 363 364 365 366 367 368 369 370 371 372 373 374 375 376 377 378 379 380 381 382 383 384 385 386 387 388 389 390 391 392 393 394 395 396 397 398 0
-399 409 0
-401 409 0
-409 399 401 0
-369 410 0
-370 410 0
-371 410 0
-372 410 0
-373 410 0
-374 410 0
-375 410 0
-376 410 0
-377 410 0
-378 410 0
-379 410 0
-380 410 0
-387 410 0
-388 410 0
-389 410 0
-390 410 0
-391 410 0
-392 410 0
-393 410 0
-394 410 0
-395 410 0
-396 410 0
-397 410 0
-398 410 0
-399 410 0
-401 410 0
-402 410 0
-403 410 0
-410 369 370 371 372 373 374 375 376 377 378 379 380 387 388 389 390 391 392 393 394 395 396 397 398 399 401 402 403 0
-363 411 0
-364 411 0
-365 411 0
-366 411 0
-367 411 0
-368 411 0
-375 411 0
-376 411 0
-377 411 0
-378 411 0
-379 411 0
-380 411 0
-381 411 0
-382 411 0
-383 411 0
-384 411 0
-385 411 0
-386 411 0
-393 411 0
-394 411 0
-395 411 0
-396 411 0
-397 411 0
-398 411 0
-399 411 0
-400 411 0
-402 411 0
-403 411 0
-411 363 364 365 366 367 368 375 376 377 378 379 380 381 382 383 384 385 386 393 394 395 396 397 398 399 400 402 403 0
-366 412 0
-367 412 0
-368 412 0
-372 412 0
-373 412 0
-374 412 0
-378 412 0
-379 412 0
-380 412 0
-384 412 0
-385 412 0
-386 412 0
-390 412 0
-391 412 0
-392 412 0
-396 412 0
-397 412 0
-398 412 0
-412 366 367 368 372 373 374 378 379 380 384 385 386 390 391 392 396 397 398 0
-381 413 0
-382 413 0
-383 413 0
-387 413 0
-388 413 0
-389 413 0
-393 413 0
-394 413 0
-395 413 0
-413 381 382 383 387 388 389 393 394 395 0
-399 414 0
-400 414 0
-401 414 0
-402 414 0
-403 414 0
-414 399 400 401 402 403 0
-363 415 0
-364 415 0
-365 415 0
-369 415 0
-370 415 0
-371 415 0
-375 415 0
-376 415 0
-377 415 0
-415 363 364 365 369 370 371 375 376 377 0
-363 416 0
-364 416 0
-365 416 0
-366 416 0
-367 416 0
-368 416 0
-369 416 0
-370 416 0
-371 416 0
-372 416 0
-373 416 0
-374 416 0
-381 416 0
-382 416 0
-383 416 0
-384 416 0
-385 416 0
-386 416 0
-387 416 0
-388 416 0
-389 416 0
-390 416 0
-391 416 0
-392 416 0
-400 416 0
-401 416 0
-402 416 0
-403 416 0
-416 363 364 365 366 367 368 369 370 371 372 373 374 381 382 383 384 385 386 387 388 389 390 391 392 400 401 402 403 0
-384 417 0
-385 417 0
-386 417 0
-390 417 0
-391 417 0
-392 417 0
-396 417 0
-397 417 0
-398 417 0
-417 384 385 386 390 391 392 396 397 398 0
-363 418 0
-364 418 0
-365 418 0
-369 418 0
-370 418 0
-371 418 0
-375 418 0
-376 418 0
-377 418 0
-381 418 0
-382 418 0
-383 418 0
-387 418 0
-388 418 0
-389 418 0
-393 418 0
-394 418 0
-395 418 0
-399 418 0
-400 418 0
-401 418 0
-402 418 0
-403 418 0
-418 363 364 365 369 370 371 375 376 377 381 382 383 387 388 389 393 394 395 399 400 401 402 403 0
-366 419 0
-367 419 0
-368 419 0
-372 419 0
-373 419 0
-374 419 0
-378 419 0
-379 419 0
-380 419 0
-419 366 367 368 372 373 374 378 379 380 0
-363 420 0
-364 420 0
-365 420 0
-366 420 0
-367 420 0
-368 420 0
-369 420 0
-370 420 0
-371 420 0
-372 420 0
-373 420 0
-374 420 0
-375 420 0
-376 420 0
-377 420 0
-378 420 0
-379 420 0
-380 420 0
-381 420 0
-382 420 0
-383 420 0
-384 420 0
-385 420 0
-386 420 0
-387 420 0
-388 420 0
-389 420 0
-390 420 0
-391 420 0
-392 420 0
-393 420 0
-394 420 0
-395 420 0
-396 420 0
-397 420 0
-398 420 0
-399 420 0
-401 420 0
-402 420 0
-403 420 0
-420 363 364 365 366 367 368 369 370 371 372 373 374 375 376 377 378 379 380 381 382 383 384 385 386 387 388 389 390 391 392 393 394 395 396 397 398 399 401 402 403 0
-363 421 0
-364 421 0
-365 421 0
-366 421 0
-367 421 0
-368 421 0
-369 421 0
-370 421 0
-371 421 0
-372 421 0
-373 421 0
-374 421 0
-375 421 0
-376 421 0
-377 421 0
-378 421 0
-379 421 0
-380 421 0
-381 421 0
-382 421 0
-383 421 0
-384 421 0
-385 421 0
-386 421 0
-387 421 0
-388 421 0
-389 421 0
-390 421 0
-391 421 0
-392 421 0
-393 421 0
-394 421 0
-395 421 0
-396 421 0
-397 421 0
-398 421 0
-399 421 0
-400 421 0
-402 421 0
-403 421 0
-421 363 364 365 366 367 368 369 370 371 372 373 374 375 376 377 378 379 380 381 382 383 384 385 386 387 388 389 390 391 392 393 394 395 396 397 398 399 400 402 403 0
-363 422 0
-364 422 0
-365 422 0
-366 422 0
-367 422 0
-368 422 0
-369 422 0
-370 422 0
-371 422 0
-372 422 0
-373 422 0
-374 422 0
-375 422 0
-376 422 0
-377 422 0
-378 422 0
-379 422 0
-380 422 0
-381 422 0
-382 422 0
-383 422 0
-384 422 0
-385 422 0
-386 422 0
-387 422 0
-388 422 0
-389 422 0
-390 422 0
-391 422 0
-392 422 0
-393 422 0
-394 422 0
-395 422 0
-396 422 0
-397 422 0
-398 422 0
-400 422 0
-401 422 0
-402 422 0
-403 422 0
-422 363 364 365 366 367 368 369 370 371 372 373 374 375 376 377 378 379 380 381 382 383 384 385 386 387 388 389 390 391 392 393 394 395 396 397 398 400 401 402 403 0
-423 -424 0
-423 -425 0
-424 -425 0
423 424 425 0
-426 -427 0
-426 -428 0
-426 -429 0
-426 -430 0
-426 -431 0
-426 -432 0
-427 -428 0
-427 -429 0
-427 -430 0
-427 -431 0
-427 -432 0
-428 -429 0
-428 -430 0
-428 -431 0
-428 -432 0
-429 -430 0
-429 -431 0
-429 -432 0
-430 -431 0
-430 -432 0
-431 -432 0
426 427 428 429 430 431 432 0
-433 -434 0
-433 -435 0
-433 -436 0
-433 -437 0
-433 -438 0
-434 -435 0
-434 -436 0
-434 -437 0
-434 -438 0
-435 -436 0
-435 -437 0
-435 -438 0
-436 -437 0
-436 -438 0
-437 -438 0
433 434 435 436 437 438 0
-439 -440 0
-439 -441 0
-439 -442 0
-439 -443 0
-439 -444 0
-440 -441 0
-440 -442 0
-440 -443 0
-440 -444 0
-441 -442 0
-441 -443 0
-441 -444 0
-442 -443 0
-442 -444 0
-443 -444 0
439 440 441 442 443 444 0
-445 -446 0
445 446 0
-447 -448 0
-447 -449 0
-447 -450 0
-447 -451 0
-447 -452 0
-448 -449 0
-448 -450 0
-448 -451 0
-448 -452 0
-449 -450 0
-449 -451 0
-449 -452 0
-450 -451 0
-450 -452 0
-451 -452 0
447 448 449 450 451 452 0
-453 -454 0
453 454 0
-455 -456 0
455 456 0
-457 -458 0
457 458 0
-459 -460 0
459 460 0
-404 315 0
-404 423 0
-402 -317 0
-402 -315 -423 0
-402 -316 -424 0
-406 316 0
-406 424 0
-403 -315 0
-403 -316 0
-403 -425 0
-407 317 0
-407 425 0
461 402 403 0
-461 -315 423 0
461 -315 -423 0
-461 -316 424 0
461 -316 -424 0
-461 -317 425 0
461 -317 -425 0
-403 -319 0
-403 -324 0
-403 -426 0
-403 -428 0
-318 -428 0
-318 -429 0
-318 -430 0
-318 -431 0
-318 -432 0
-403 -318 427 0
-320 -426 0
-320 -427 0
-320 -430 0
-320 -431 0
-320 -432 0
-403 -320 429 0
-321 -426 0
-321 -427 0
-321 -428 0
-321 -431 0
-321 -432 0
-403 -321 430 0
-322 -426 0
-322 -427 0
-322 -428 0
-322 -429 0
-322 -432 0
-403 -322 431 0
-323 -426 0
-323 -427 0
-323 -428 0
-323 -429 0
-323 -430 0
-403 -323 432 0
-409 319 320 321 322 323 324 0
-409 427 428 429 430 431 432 0
-402 -318 0
-402 -324 0
-402 -426 0
-402 -427 0
-319 -426 0
-319 -429 0
-319 -430 0
-319 -431 0
-319 -432 0
-402 -319 428 0
-320 -426 0
-320 -427 0
-320 -430 0
-320 -431 0
-320 -432 0
-402 -320 429 0
-321 -426 0
-321 -427 0
-321 -428 0
-321 -431 0
-321 -432 0
-402 -321 430 0
-322 -426 0
-322 -427 0
-322 -428 0
-322 -429 0
-322 -432 0
-402 -322 431 0
-323 -426 0
-323 -427 0
-323 -428 0
-323 -429 0
-323 -430 0
-402 -323 432 0
-400 320 321 0
-400 428 429 0
462 403 402 0
-462 -318 426 0
462 -318 -426 0
-462 -319 427 0
462 -319 -427 0
-462 -320 428 0
462 -320 -428 0
-462 -321 429 0
462 -321 -429 0
-462 -322 430 0
462 -322 -430 0
-462 -323 431 0
462 -323 -431 0
-462 -324 432 0
462 -324 -432 0
-363 -326 0
-363 -327 0
-363 -328 0
-363 -329 0
-363 -330 0
-363 -433 0
-363 -434 0
-363 -435 0
-363 -437 0
-363 -438 0
-325 -434 0
-325 -435 0
-325 -438 0
-363 -325 436 0
-366 -326 0
-366 -327 0
-366 -328 0
-366 -329 0
-366 -330 0
-366 -433 0
-366 -434 0
-366 -435 0
-366 -436 0
-366 -438 0
-325 -434 0
-325 -435 0
-325 -438 0
-366 -325 437 0
-364 -325 0
-364 -327 0
-364 -328 0
-364 -329 0
-364 -330 0
-364 -433 0
-364 -434 0
-364 -435 0
-364 -437 0
-364 -438 0
-326 -433 0
-326 -435 0
-326 -438 0
-364 -326 436 0
-367 -325 0
-367 -327 0
-367 -328 0
-367 -329 0
-367 -330 0
-367 -433 0
-367 -434 0
-367 -435 0
-367 -436 0
-367 -438 0
-326 -433 0
-326 -435 0
-326 -438 0
-367 -326 437 0
-365 -325 0
-365 -326 0
-365 -328 0
-365 -329 0
-365 -330 0
-365 -433 0
-365 -434 0
-365 -435 0
-365 -437 0
-365 -438 0
-327 -433 0
-327 -434 0
-365 -327 436 0
-368 -325 0
-368 -326 0
-368 -328 0
-368 -329 0
-368 -330 0
-368 -433 0
-368 -434 0
-368 -435 0
-368 -436 0
-368 -438 0
-327 -433 0
-327 -434 0
-368 -327 437 0
-400 -325 0
-400 -326 0
-400 -328 0
-400 -329 0
-400 -330 0
-400 -433 0
-400 -434 0
-400 -435 0
-400 -436 0
-400 -437 0
-327 -433 0
-327 -434 0
-400 -327 438 0
-381 -325 0
-381 -326 0
-381 -327 0
-381 -329 0
-381 -330 0
-381 -434 0
-381 -435 0
-381 -436 0
-381 -437 0
-381 -438 0
-328 -437 0
-328 -438 0
-381 -328 433 0
-382 -325 0
-382 -326 0
-382 -327 0
-382 -329 0
-382 -330 0
-382 -433 0
-382 -435 0
-382 -436 0
-382 -437 0
-382 -438 0
-328 -437 0
-328 -438 0
-382 -328 434 0
-383 -325 0
-383 -326 0
-383 -327 0
-383 -329 0
-383 -330 0
-383 -433 0
-383 -434 0
-383 -436 0
-383 -437 0
-383 -438 0
-328 -437 0
-328 -438 0
-383 -328 435 0
-384 -325 0
-384 -326 0
-384 -327 0
-384 -328 0
-384 -330 0
-384 -434 0
-384 -435 0
-384 -436 0
-384 -437 0
-384 -438 0
-329 -436 0
-329 -438 0
-384 -329 433 0
-385 -325 0
-385 -326 0
-385 -327 0
-385 -328 0
-385 -330 0
-385 -433 0
-385 -435 0
-385 -436 0
-385 -437 0
-385 -438 0
-329 -436 0
-329 -438 0
-385 -329 434 0
-386 -325 0
-386 -326 0
-386 -327 0
-386 -328 0
-386 -330 0
-386 -433 0
-386 -434 0
-386 -436 0
-386 -437 0
-386 -438 0
-329 -436 0
-329 -438 0
-386 -329 435 0
463 363 366 364 367 365 368 400 381 382 383 384 385 386 0
-463 -325 433 0
463 -325 -433 0
-463 -326 434 0
463 -326 -434 0
-463 -327 435 0
463 -327 -435 0
-463 -328 436 0
463 -328 -436 0
-463 -329 437 0
463 -329 -437 0
-463 -330 438 0
463 -330 -438 0
-369 -332 0
-369 -333 0
-369 -334 0
-369 -335 0
-369 -336 0
-369 -439 0
-369 -440 0
-369 -441 0
-369 -443 0
-369 -444 0
-331 -440 0
-331 -441 0
-369 -331 442 0
-372 -332 0
-372 -333 0
-372 -334 0
-372 -335 0
-372 -336 0
-372 -439 0
-372 -440 0
-372 -441 0
-372 -442 0
-372 -444 0
-331 -440 0
-331 -441 0
-372 -331 443 0
-401 -332 0
-401 -333 0
-401 -334 0
-401 -335 0
-401 -336 0
-401 -439 0
-401 -440 0
-401 -441 0
-401 -442 0
-401 -443 0
-331 -440 0
-331 -441 0
-401 -331 444 0
-370 -331 0
-370 -333 0
-370 -334 0
-370 -335 0
-370 -336 0
-370 -439 0
-370 -440 0
-370 -441 0
-370 -443 0
-370 -444 0
-332 -439 0
-332 -441 0
-332 -444 0
-370 -332 442 0
-373 -331 0
-373 -333 0
-373 -334 0
-373 -335 0
-373 -336 0
-373 -439 0
-373 -440 0
-373 -441 0
-373 -442 0
-373 -444 0
-332 -439 0
-332 -441 0
-332 -444 0
-373 -332 443 0
-371 -331 0
-371 -332 0
-371 -334 0
-371 -335 0
-371 -336 0
-371 -439 0
-371 -440 0
-371 -441 0
-371 -443 0
-371 -444 0
-333 -439 0
-333 -440 0
-333 -444 0
-371 -333 442 0
-374 -331 0
-374 -332 0
-374 -334 0
-374 -335 0
-374 -336 0
-374 -439 0
-374 -440 0
-374 -441 0
-374 -442 0
-374 -444 0
-333 -439 0
-333 -440 0
-333 -444 0
-374 -333 443 0
-387 -331 0
-387 -332 0
-387 -333 0
-387 -335 0
-387 -336 0
-387 -440 0
-387 -441 0
-387 -442 0
-387 -443 0
-387 -444 0
-334 -443 0
-334 -444 0
-387 -334 439 0
-388 -331 0
-388 -332 0
-388 -333 0
-388 -335 0
-388 -336 0
-388 -439 0
-388 -441 0
-388 -442 0
-388 -443 0
-388 -444 0
-334 -443 0
-334 -444 0
-388 -334 440 0
-389 -331 0
-389 -332 0
-389 -333 0
-389 -335 0
-389 -336 0
-389 -439 0
-389 -440 0
-389 -442 0
-389 -443 0
-389 -444 0
-334 -443 0
-334 -444 0
-389 -334 441 0
-390 -331 0
-390 -332 0
-390 -333 0
-390 -334 0
-390 -336 0
-390 -440 0
-390 -441 0
-390 -442 0
-390 -443 0
-390 -444 0
-335 -442 0
-335 -444 0
-390 -335 439 0
-391 -331 0
-391 -332 0
-391 -333 0
-391 -334 0
-391 -336 0
-391 -439 0
-391 -441 0
-391 -442 0
-391 -443 0
-391 -444 0
-335 -442 0
-335 -444 0
-391 -335 440 0
-392 -331 0
-392 -332 0
-392 -333 0
-392 -334 0
-392 -336 0
-392 -439 0
-392 -440 0
-392 -442 0
-392 -443 0
-392 -444 0
-335 -442 0
-335 -444 0
-392 -335 441 0
464 369 372 401 370 373 371 374 387 388 389 390 391 392 0
-464 -331 439 0
464 -331 -439 0
-464 -332 440 0
464 -332 -440 0
-464 -333 441 0
464 -333 -441 0
-464 -334 442 0
464 -334 -442 0
-464 -335 443 0
464 -335 -443 0
-464 -336 444 0
464 -336 -444 0
-412 337 0
-412 445 0
-413 -446 0
-413 -337 445 0
-413 -338 445 0
-415 -338 0
-415 -445 0
-415 -337 446 0
465 413 415 0
-465 -337 445 0
465 -337 -445 0
-465 -338 446 0
465 -338 -446 0
-375 -340 0
-375 -341 0
-375 -342 0
-375 -343 0
-375 -344 0
-375 -447 0
-375 -448 0
-375 -449 0
-375 -451 0
-375 -452 0
-339 -448 0
-339 -449 0
-375 -339 450 0
-378 -340 0
-378 -341 0
-378 -342 0
-378 -343 0
-378 -344 0
-378 -447 0
-378 -448 0
-378 -449 0
-378 -450 0
-378 -452 0
-339 -448 0
-339 -449 0
-378 -339 451 0
-399 -340 0
-399 -341 0
-399 -342 0
-399 -343 0
-399 -344 0
-399 -447 0
-399 -448 0
-399 -449 0
-399 -450 0
-399 -451 0
-339 -448 0
-339 -449 0
-399 -339 452 0
-376 -339 0
-376 -341 0
-376 -342 0
-376 -343 0
-376 -344 0
-376 -447 0
-376 -448 0
-376 -449 0
-376 -451 0
-376 -452 0
-340 -447 0
-340 -449 0
-340 -452 0
-376 -340 450 0
-379 -339 0
-379 -341 0
-379 -342 0
-379 -343 0
-379 -344 0
-379 -447 0
-379 -448 0
-379 -449 0
-379 -450 0
-379 -452 0
-340 -447 0
-340 -449 0
-340 -452 0
-379 -340 451 0
-377 -339 0
-377 -340 0
-377 -342 0
-377 -343 0
-377 -344 0
-377 -447 0
-377 -448 0
-377 -449 0
-377 -451 0
-377 -452 0
-341 -447 0
-341 -448 0
-341 -452 0
-377 -341 450 0
-380 -339 0
-380 -340 0
-380 -342 0
-380 -343 0
-380 -344 0
-380 -447 0
-380 -448 0
-380 -449 0
-380 -450 0
-380 -452 0
-341 -447 0
-341 -448 0
-341 -452 0
-380 -341 451 0
-393 -339 0
-393 -340 0
-393 -341 0
-393 -343 0
-393 -344 0
-393 -448 0
-393 -449 0
-393 -450 0
-393 -451 0
-393 -452 0
-342 -451 0
-342 -452 0
-393 -342 447 0
-394 -339 0
-394 -340 0
-394 -341 0
-394 -343 0
-394 -344 0
-394 -447 0
-394 -449 0
-394 -450 0
-394 -451 0
-394 -452 0
-342 -451 0
-342 -452 0
-394 -342 448 0
-395 -339 0
-395 -340 0
-395 -341 0
-395 -343 0
-395 -344 0
-395 -447 0
-395 -448 0
-395 -450 0
-395 -451 0
-395 -452 0
-342 -451 0
-342 -452 0
-395 -342 449 0
-396 -339 0
-396 -340 0
-396 -341 0
-396 -342 0
-396 -344 0
-396 -448 0
-396 -449 0
-396 -450 0
-396 -451 0
-396 -452 0
-343 -450 0
-343 -452 0
-396 -343 447 0
-397 -339 0
-397 -340 0
-397 -341 0
-397 -342 0
-397 -344 0
-397 -447 0
-397 -449 0
-397 -450 0
-397 -451 0
-397 -452 0
-343 -450 0
-343 -452 0
-397 -343 448 0
-398 -339 0
-398 -340 0
-398 -341 0
-398 -342 0
-398 -344 0
-398 -447 0
-398 -448 0
-398 -450 0
-398 -451 0
-398 -452 0
-343 -450 0
-343 -452 0
-398 -343 449 0
466 375 378 399 376 379 377 380 393 394 395 396 397 398 0
-466 -339 447 0
466 -339 -447 0
-466 -340 448 0
466 -340 -448 0
-466 -341 449 0
466 -341 -449 0
-466 -342 450 0
466 -342 -450 0
-466 -343 451 0
466 -343 -451 0
-466 -344 452 0
466 -344 -452 0
-417 -454 0
-417 -345 453 0
-417 -346 453 0
-419 -346 0
-419 -453 0
-419 -345 454 0
467 417 419 0
-467 -345 453 0
467 -345 -453 0
-467 -346 454 0
467 -346 -454 0
-400 -456 0
-347 -456 0
-400 -347 455 0
-400 -348 455 0
468 400 0
-468 -347 455 0
468 -347 -455 0
-468 -348 456 0
468 -348 -456 0
-401 -458 0
-349 -458 0
-401 -349 457 0
-401 -350 457 0
469 401 0
-469 -349 457 0
469 -349 -457 0
-469 -350 458 0
469 -350 -458 0
-399 -460 0
-351 -460 0
-399 -351 459 0
-399 -352 459 0
470 399 0
-470 -351 459 0
470 -351 -459 0
-470 -352 460 0
470 -352 -460 0
-510 -511 0
-510 -511 0
-471 -472 0
-471 -473 0
-471 -474 0
-471 -475 0
-471 -476 0
-471 -489 0
-471 -490 0
-471 -491 0
-471 -492 0
-471 -493 0
-471 -494 0
-471 -508 0
-472 -473 0
-472 -474 0
-472 -475 0
-472 -476 0
-472 -489 0
-472 -490 0
-472 -491 0
-472 -492 0
-472 -493 0
-472 -494 0
-472 -508 0
-473 -474 0
-473 -475 0
-473 -476 0
-473 -489 0
-473 -490 0
-473 -491 0
-473 -492 0
-473 -493 0
-473 -494 0
-473 -508 0
-474 -475 0
-474 -476 0
-474 -489 0
-474 -490 0
-474 -491 0
-474 -492 0
-474 -493 0
-474 -494 0
-474 -508 0
-475 -476 0
-475 -489 0
-475 -490 0
-475 -491 0
-475 -492 0
-475 -493 0
-475 -494 0
-475 -508 0
-476 -489 0
-476 -490 0
-476 -491 0
-476 -492 0
-476 -493 0
-476 -494 0
-476 -508 0
-489 -490 0
-489 -491 0
-489 -492 0
-489 -493 0
-489 -494 0
-489 -508 0
-490 -491 0
-490 -492 0
-490 -493 0
-490 -494 0
-490 -508 0
-491 -492 0
-491 -493 0
-491 -494 0
-491 -508 0
-492 -493 0
-492 -494 0
-492 -508 0
-493 -494 0
-493 -508 0
-494 -508 0
-477 -478 0
-477 -479 0
-477 -480 0
-477 -481 0
-477 -482 0
-477 -495 0
-477 -496 0
-477 -497 0
-477 -498 0
-477 -499 0
-477 -500 0
-477 -509 0
-478 -479 0
-478 -480 0
-478 -481 0
-478 -482 0
-478 -495 0
-478 -496 0
-478 -497 0
-478 -498 0
-478 -499 0
-478 -500 0
-478 -509 0
-479 -480 0
-479 -481 0
-479 -482 0
-479 -495 0
-479 -496 0
-479 -497 0
-479 -498 0
-479 -499 0
-479 -500 0
-479 -509 0
-480 -481 0
-480 -482 0
-480 -495 0
-480 -496 0
-480 -497 0
-480 -498 0
-480 -499 0
-480 -500 0
-480 -509 0
-481 -482 0
-481 -495 0
-481 -496 0
-481 -497 0
-481 -498 0
-481 -499 0
-481 -500 0
-481 -509 0
-482 -495 0
-482 -496 0
-482 -497 0
-482 -498 0
-482 -499 0
-482 -500 0
-482 -509 0
-495 -496 0
-495 -497 0
-495 -498 0
-495 -499 0
-495 -500 0
-495 -509 0
-496 -497 0
-496 -498 0
-496 -499 0
-496 -500 0
-496 -509 0
-497 -498 0
-497 -499 0
-497 -500 0
-497 -509 0
-498 -499 0
-498 -500 0
-498 -509 0
-499 -500 0
-499 -509 0
-500 -509 0
-471 -472 0
-471 -473 0
-471 -477 0
-471 -478 0
-471 -479 0
-471 -483 0
-471 -484 0
-471 -485 0
-471 -489 0
-471 -490 0
-471 -491 0
-471 -495 0
-471 -496 0
-471 -497 0
-471 -501 0
-471 -502 0
-471 -503 0
-472 -473 0
-472 -477 0
-472 -478 0
-472 -479 0
-472 -483 0
-472 -484 0
-472 -485 0
-472 -489 0
-472 -490 0
-472 -491 0
-472 -495 0
-472 -496 0
-472 -497 0
-472 -501 0
-472 -502 0
-472 -503 0
-473 -477 0
-473 -478 0
-473 -479 0
-473 -483 0
-473 -484 0
-473 -485 0
-473 -489 0
-473 -490 0
-473 -491 0
-473 -495 0
-473 -496 0
-473 -497 0
-473 -501 0
-473 -502 0
-473 -503 0
-477 -478 0
-477 -479 0
-477 -483 0
-477 -484 0
-477 -485 0
-477 -489 0
-477 -490 0
-477 -491 0
-477 -495 0
-477 -496 0
-477 -497 0
-477 -501 0
-477 -502 0
-477 -503 0
-478 -479 0
-478 -483 0
-478 -484 0
-478 -485 0
-478 -489 0
-478 -490 0
-478 -491 0
-478 -495 0
-478 -496 0
-478 -497 0
-478 -501 0
-478 -502 0
-478 -503 0
-479 -483 0
-479 -484 0
-479 -485 0
-479 -489 0
-479 -490 0
-479 -491 0
-479 -495 0
-479 -496 0
-479 -497 0
-479 -501 0
-479 -502 0
-479 -503 0
-483 -484 0
-483 -485 0
-483 -489 0
-483 -490 0
-483 -491 0
-483 -495 0
-483 -496 0
-483 -497 0
-483 -501 0
-483 -502 0
-483 -503 0
-484 -485 0
-484 -489 0
-484 -490 0
-484 -491 0
-484 -495 0
-484 -496 0
-484 -497 0
-484 -501 0
-484 -502 0
-484 -503 0
-485 -489 0
-485 -490 0
-485 -491 0
-485 -495 0
-485 -496 0
-485 -497 0
-485 -501 0
-485 -502 0
-485 -503 0
-489 -490 0
-489 -491 0
-489 -495 0
-489 -496 0
-489 -497 0
-489 -501 0
-489 -502 0
-489 -503 0
-490 -491 0
-490 -495 0
-490 -496 0
-490 -497 0
-490 -501 0
-490 -502 0
-490 -503 0
-491 -495 0
-491 -496 0
-491 -497 0
-491 -501 0
-491 -502 0
-491 -503 0
-495 -496 0
-495 -497 0
-495 -501 0
-495 -502 0
-495 -503 0
-496 -497 0
-496 -501 0
-496 -502 0
-496 -503 0
-497 -501 0
-497 -502 0
-497 -503 0
-501 -502 0
-501 -503 0
-502 -503 0
-483 -484 0
-483 -485 0
-483 -486 0
-483 -487 0
-483 -488 0
-483 -501 0
-483 -502 0
-483 -503 0
-483 -504 0
-483 -505 0
-483 -506 0
-483 -507 0
-484 -485 0
-484 -486 0
-484 -487 0
-484 -488 0
-484 -501 0
-484 -502 0
-484 -503 0
-484 -504 0
-484 -505 0
-484 -506 0
-484 -507 0
-485 -486 0
-485 -487 0
-485 -488 0
-485 -501 0
-485 -502 0
-485 -503 0
-485 -504 0
-485 -505 0
-485 -506 0
-485 -507 0
-486 -487 0
-486 -488 0
-486 -501 0
-486 -502 0
-486 -503 0
-486 -504 0
-486 -505 0
-486 -506 0
-486 -507 0
-487 -488 0
-487 -501 0
-487 -502 0
-487 -503 0
-487 -504 0
-487 -505 0
-487 -506 0
-487 -507 0
-488 -501 0
-488 -502 0
-488 -503 0
-488 -504 0
-488 -505 0
-488 -506 0
-488 -507 0
-501 -502 0
-501 -503 0
-501 -504 0
-501 -505 0
-501 -506 0
-501 -507 0
-502 -503 0
-502 -504 0
-502 -505 0
-502 -506 0
-502 -507 0
-503 -504 0
-503 -505 0
-503 -506 0
-503 -507 0
-504 -505 0
-504 -506 0
-504 -507 0
-505 -506 0
-505 -507 0
-506 -507 0
-474 -475 0
-474 -476 0
-474 -480 0
-474 -481 0
-474 -482 0
-474 -486 0
-474 -487 0
-474 -488 0
-474 -492 0
-474 -493 0
-474 -494 0
-474 -498 0
-474 -499 0
-474 -500 0
-474 -504 0
-474 -505 0
-474 -506 0
-475 -476 0
-475 -480 0
-475 -481 0
-475 -482 0
-475 -486 0
-475 -487 0
-475 -488 0
-475 -492 0
-475 -493 0
-475 -494 0
-475 -498 0
-475 -499 0
-475 -500 0
-475 -504 0
-475 -505 0
-475 -506 0
-476 -480 0
-476 -481 0
-476 -482 0
-476 -486 0
-476 -487 0
-476 -488 0
-476 -492 0
-476 -493 0
-476 -494 0
-476 -498 0
-476 -499 0
-476 -500 0
-476 -504 0
-476 -505 0
-476 -506 0
-480 -481 0
-480 -482 0
-480 -486 0
-480 -487 0
-480 -488 0
-480 -492 0
-480 -493 0
-480 -494 0
-480 -498 0
-480 -499 0
-480 -500 0
-480 -504 0
-480 -505 0
-480 -506 0
-481 -482 0
-481 -486 0
-481 -487 0
-481 -488 0
-481 -492 0
-481 -493 0
-481 -494 0
-481 -498 0
-481 -499 0
-481 -500 0
-481 -504 0
-481 -505 0
-481 -506 0
-482 -486 0
-482 -487 0
-482 -488 0
-482 -492 0
-482 -493 0
-482 -494 0
-482 -498 0
-482 -499 0
-482 -500 0
-482 -504 0
-482 -505 0
-482 -506 0
-486 -487 0
-486 -488 0
-486 -492 0
-486 -493 0
-486 -494 0
-486 -498 0
-486 -499 0
-486 -500 0
-486 -504 0
-486 -505 0
-486 -506 0
-487 -488 0
-487 -492 0
-487 -493 0
-487 -494 0
-487 -498 0
-487 -499 0
-487 -500 0
-487 -504 0
-487 -505 0
-487 -506 0
-488 -492 0
-488 -493 0
-488 -494 0
-488 -498 0
-488 -499 0
-488 -500 0
-488 -504 0
-488 -505 0
-488 -506 0
-492 -493 0
-492 -494 0
-492 -498 0
-492 -499 0
-492 -500 0
-492 -504 0
-492 -505 0
-492 -506 0
-493 -494 0
-493 -498 0
-493 -499 0
-493 -500 0
-493 -504 0
-493 -505 0
-493 -506 0
-494 -498 0
-494 -499 0
-494 -500 0
-494 -504 0
-494 -505 0
-494 -506 0
-498 -499 0
-498 -500 0
-498 -504 0
-498 -505 0
-498 -506 0
-499 -500 0
-499 -504 0
-499 -505 0
-499 -506 0
-500 -504 0
-500 -505 0
-500 -506 0
-504 -505 0
-504 -506 0
-505 -506 0
471 472 473 474 475 476 477 478 479 480 481 482 483 484 485 486 487 488 489 490 491 492 493 494 495 496 497 498 499 500 501 502 503 504 505 506 507 508 509 510 511 0
-471 512 0
-474 512 0
-477 512 0
-480 512 0
-483 512 0
-486 512 0
-489 512 0
-492 512 0
-495 512 0
-498 512 0
-501 512 0
-504 512 0
-512 471 474 477 480 483 486 489 492 495 498 501 504 0
-507 513 0
-508 513 0
-509 513 0
-513 507 508 509 0
-472 514 0
-475 514 0
-478 514 0
-481 514 0
-484 514 0
-487 514 0
-490 514 0
-493 514 0
-496 514 0
-499 514 0
-502 514 0
-505 514 0
-514 472 475 478 481 484 487 490 493 496 499 502 505 0
-473 515 0
-476 515 0
-479 515 0
-482 515 0
-485 515 0
-488 515 0
-491 515 0
-494 515 0
-497 515 0
-500 515 0
-503 515 0
-506 515 0
-515 473 476 479 482 485 488 491 494 497 500 503 506 0
-471 516 0
-472 516 0
-473 516 0
-474 516 0
-475 516 0
-476 516 0
-477 516 0
-478 516 0
-479 516 0
-480 516 0
-481 516 0
-482 516 0
-483 516 0
-484 516 0
-485 516 0
-486 516 0
-487 516 0
-488 516 0
-489 516 0
-490 516 0
-491 516 0
-492 516 0
-493 516 0
-494 516 0
-495 516 0
-496 516 0
-497 516 0
-498 516 0
-499 516 0
-500 516 0
-501 516 0
-502 516 0
-503 516 0
-504 516 0
-505 516 0
-506 516 0
-516 471 472 473 474 475 476 477 478 479 480 481 482 483 484 485 486 487 488 489 490 491 492 493 494 495 496 497 498 499 500 501 502 503 504 505 506 0
-507 517 0
-509 517 0
-517 507 509 0
-477 518 0
-478 518 0
-479 518 0
-480 518 0
-481 518 0
-482 518 0
-483 518 0
-484 518 0
-485 518 0
-486 518 0
-487 518 0
-488 518 0
-495 518 0
-496 518 0
-497 518 0
-498 518 0
-499 518 0
-500 518 0
-501 518 0
-502 518 0
-503 518 0
-504 518 0
-505 518 0
-506 518 0
-507 518 0
-509 518 0
-510 518 0
-511 518 0
-518 477 478 479 480 481 482 483 484 485 486 487 488 495 496 497 498 499 500 501 502 503 504 505 506 507 509 510 511 0
-471 519 0
-472 519 0
-473 519 0
-474 519 0
-475 519 0
-476 519 0
-483 519 0
-484 519 0
-485 519 0
-486 519 0
-487 519 0
-488 519 0
-489 519 0
-490 519 0
-491 519 0
-492 519 0
-493 519 0
-494 519 0
-501 519 0
-502 519 0
-503 519 0
-504 519 0
-505 519 0
-506 519 0
-507 519 0
-508 519 0
-510 519 0
-511 519 0
-519 471 472 473 474 475 476 483 484 485 486 487 488 489 490 491 492 493 494 501 502 503 504 505 506 507 508 510 511 0
-474 520 0
-475 520 0
-476 520 0
-480 520 0
-481 520 0
-482 520 0
-486 520 0
-487 520 0
-488 520 0
-492 520 0
-493 520 0
-494 520 0
-498 520 0
-499 520 0
-500 520 0
-504 520 0
-505 520 0
-506 520 0
-520 474 475 476 480 481 482 486 487 488 492 493 494 498 499 500 504 505 506 0
-489 521 0
-490 521 0
-491 521 0
-495 521 0
-496 521 0
-497 521 0
-501 521 0
-502 521 0
-503 521 0
-521 489 490 491 495 496 497 501 502 503 0
-507 522 0
-508 522 0
-509 522 0
-510 522 0
-511 522 0
-522 507 508 509 510 511 0
-471 523 0
-472 523 0
-473 523 0
-477 523 0
-478 523 0
-479 523 0
-483 523 0
-484 523 0
-485 523 0
-523 471 472 473 477 478 479 483 484 485 0
-471 524 0
-472 524 0
-473 524 0
-474 524 0
-475 524 0
-476 524 0
-477 524 0
-478 524 0
-479 524 0
-480 524 0
-481 524 0
-482 524 0
-489 524 0
-490 524 0
-491 524 0
-492 524 0
-493 524 0
-494 524 0
-495 524 0
-496 524 0
-497 524 0
-498 524 0
-499 524 0
-500 524 0
-508 524 0
-509 524 0
-510 524 0
-511 524 0
-524 471 472 473 474 475 476 477 478 479 480 481 482 489 490 491 492 493 494 495 496 497 498 499 500 508 509 510 511 0
-492 525 0
-493 525 0
-494 525 0
-498 525 0
-499 525 0
-500 525 0
-504 525 0
-505 525 0
-506 525 0
-525 492 493 494 498 499 500 504 505 506 0
-471 526 0
-472 526 0
-473 526 0
-477 526 0
-478 526 0
-479 526 0
-483 526 0
-484 526 0
-485 526 0
-489 526 0
-490 526 0
-491 526 0
-495 526 0
-496 526 0
-497 526 0
-501 526 0
-502 526 0
-503 526 0
-507 526 0
-508 526 0
-509 526 0
-510 526 0
-511 526 0
-526 471 472 473 477 478 479 483 484 485 489 490 491 495 496 497 501 502 503 507 508 509 510 511 0
-474 527 0
-475 527 0
-476 527 0
-480 527 0
-481 527 0
-482 527 0
-486 527 0
-487 527 0
-488 527 0
-527 474 475 476 480 481 482 486 487 488 0
-471 528 0
-472 528 0
-473 528 0
-474 528 0
-475 528 0
-476 528 0
-477 528 0
-478 528 0
-479 528 0
-480 528 0
-481 528 0
-482 528 0
-483 528 0
-484 528 0
-485 528 0
-486 528 0
-487 528 0
-488 528 0
-489 528 0
-490 528 0
-491 528 0
-492 528 0
-493 528 0
-494 528 0
-495 528 0
-496 528 0
-497 528 0
-498 528 0
-499 528 0
-500 528 0
-501 528 0
-502 528 0
-503 528 0
-504 528 0
-505 528 0
-506 528 0
-507 528 0
-509 528 0
-510 528 0
-511 528 0
-528 471 472 473 474 475 476 477 478 479 480 481 482 483 484 485 486 487 488 489 490 491 492 493 494 495 496 497 498 499 500 501 502 503 504 505 506 507 509 510 511 0
-471 529 0
-472 529 0
-473 529 0
-474 529 0
-475 529 0
-476 529 0
-477 529 0
-478 529 0
-479 529 0
-480 529 0
-481 529 0
-482 529 0
-483 529 0
-484 529 0
-485 529 0
-486 529 0
-487 529 0
-488 529 0
-489 529 0
-490 529 0
-491 529 0
-492 529 0
-493 529 0
-494 529 0
-495 529 0
-496 529 0
-497 529 0
-498 529 0
-499 529 0
-500 529 0
-501 529 0
-502 529 0
-503 529 0
-504 529 0
-505 529 0
-506 529 0
-507 529 0
-508 529 0
-510 529 0
-511 529 0
-529 471 472 473 474 475 476 477 478 479 480 481 482 483 484 485 486 487 488 489 490 491 492 493 494 495 496 497 498 499 500 501 502 503 504 505 506 507 508 510 511 0
-471 530 0
-472 530 0
-473 530 0
-474 530 0
-475 530 0
-476 530 0
-477 530 0
-478 530 0
-479 530 0
-480 530 0
-481 530 0
-482 530 0
-483 530 0
-484 530 0
-485 530 0
-486 530 0
-487 530 0
-488 530 0
-489 530 0
-490 530 0
-491 530 0
-492 530 0
-493 530 0
-494 530 0
-495 530 0
-496 530 0
-497 530 0
-498 530 0
-499 530 0
-500 530 0
-501 530 0
-502 530 0
-503 530 0
-504 530 0
-505 530 0
-506 530 0
-508 530 0
-509 530 0
-510 530 0
-511 530 0
-530 471 472 473 474 475 476 477 478 479 480 481 482 483 484 485 486 487 488 489 490 491 492 493 494 495 496 497 498 499 500 501 502 503 504 505 506 508 509 510 511 0
-531 -532 0
-531 -533 0
-532 -533 0
531 532 533 0
-534 -535 0
-534 -536 0
-534 -537 0
-534 -538 0
-534 -539 0
-534 -540 0
-535 -536 0
-535 -537 0
-535 -538 0
-535 -539 0
-535 -540 0
-536 -537 0
-536 -538 0
-536 -539 0
-536 -540 0
-537 -538 0
-537 -539 0
-537 -540 0
-538 -539 0
-538 -540 0
-539 -540 0
534 535 536 537 538 539 540 0
-541 -542 0
-541 -543 0
-541 -544 0
-541 -545 0
-541 -546 0
-542 -543 0
-542 -544 0
-542 -545 0
-542 -546 0
-543 -544 0
-543 -545 0
-543 -546 0
-544 -545 0
-544 -546 0
-545 -546 0
541 542 543 544 545 546 0
-547 -548 0
-547 -549 0
-547 -550 0
-547 -551 0
-547 -552 0
-548 -549 0
-548 -550 0
-548 -551 0
-548 -552 0
-549 -550 0
-549 -551 0
-549 -552 0
-550 -551 0
-550 -552 0
-551 -552 0
547 548 549 550 551 552 0
-553 -554 0
553 554 0
-555 -556 0
-555 -557 0
-555 -558 0
-555 -559 0
-555 -560 0
-556 -557 0
-556 -558 0
-556 -559 0
-556 -560 0
-557 -558 0
-557 -559 0
-557 -560 0
-558 -559 0
-558 -560 0
-559 -560 0
555 556 557 558 559 560 0
-561 -562 0
561 562 0
-563 -564 0
563 564 0
-565 -566 0
565 566 0
-567 -568 0
567 568 0
-512 423 0
-512 531 0
-510 -425 0
-510 -423 -531 0
-510 -424 -532 0
-514 424 0
-514 532 0
-511 -423 0
-511 -424 0
-511 -533 0
-515 425 0
-515 533 0
569 510 511 0
-569 -423 531 0
569 -423 -531 0
-569 -424 532 0
569 -424 -532 0
-569 -425 533 0
569 -425 -533 0
-511 -427 0
-511 -432 0
-511 -534 0
-511 -536 0
-426 -536 0
-426 -537 0
-426 -538 0
-426 -539 0
-426 -540 0
-511 -426 535 0
-428 -534 0
-428 -535 0
-428 -538 0
-428 -539 0
-428 -540 0
-511 -428 537 0
-429 -534 0
-429 -535 0
-429 -536 0
-429 -539 0
-429 -540 0
-511 -429 538 0
-430 -534 0
-430 -535 0
-430 -536 0
-430 -537 0
-430 -540 0
-511 -430 539 0
-431 -534 0
-431 -535 0
-431 -536 0
-431 -537 0
-431 -538 0
-511 -431 540 0
-517 427 428 429 430 431 432 0
-517 535 536 537 538 539 540 0
-510 -426 0
-510 -432 0
-510 -534 0
-510 -535 0
-427 -534 0
-427 -537 0
-427 -538 0
-427 -539 0
-427 -540 0
-510 -427 536 0
-428 -534 0
-428 -535 0
-428 -538 0
-428 -539 0
-428 -540 0
-510 -428 537 0
-429 -534 0
-429 -535 0
-429 -536 0
-429 -539 0
-429 -540 0
-510 -429 538 0
-430 -534 0
-430 -535 0
-430 -536 0
-430 -537 0
-430 -540 0
-510 -430 539 0
-431 -534 0
-431 -535 0
-431 -536 0
-431 -537 0
-431 -538 0
-510 -431 540 0
-508 428 429 0
-508 536 537 0
570 511 510 0
-570 -426 534 0
570 -426 -534 0
-570 -427 535 0
570 -427 -535 0
-570 -428 536 0
570 -428 -536 0
-570 -429 537 0
570 -429 -537 0
-570 -430 538 0
570 -430 -538 0
-570 -431 539 0
570 -431 -539 0
-570 -432 540 0
570 -432 -540 0
-471 -434 0
-471 -435 0
-471 -436 0
-471 -437 0
-471 -438 0
-471 -541 0
-471 -542 0
-471 -543 0
-471 -545 0
-471 -546 0
-433 -542 0
-433 -543 0
-433 -546 0
-471 -433 544 0
-474 -434 0
-474 -435 0
-474 -436 0
-474 -437 0
-474 -438 0
-474 -541 0
-474 -542 0
-474 -543 0
-474 -544 0
-474 -546 0
-433 -542 0
-433 -543 0
-433 -546 0
-474 -433 545 0
-472 -433 0
-472 -435 0
-472 -436 0
-472 -437 0
-472 -438 0
-472 -541 0
-472 -542 0
-472 -543 0
-472 -545 0
-472 -546 0
-434 -541 0
-434 -543 0
-434 -546 0
-472 -434 544 0
-475 -433 0
-475 -435 0
-475 -436 0
-475 -437 0
-475 -438 0
-475 -541 0
-475 -542 0
-475 -543 0
-475 -544 0
-475 -546 0
-434 -541 0
-434 -543 0
-434 -546 0
-475 -434 545 0
-473 -433 0
-473 -434 0
-473 -436 0
-473 -437 0
-473 -438 0
-473 -541 0
-473 -542 0
-473 -543 0
-473 -545 0
-473 -546 0
-435 -541 0
-435 -542 0
-473 -435 544 0
-476 -433 0
-476 -434 0
-476 -436 0
-476 -437 0
-476 -438 0
-476 -541 0
-476 -542 0
-476 -543 0
-476 -544 0
-476 -546 0
-435 -541 0
-435 -542 0
-476 -435 545 0
-508 -433 0
-508 -434 0
-508 -436 0
-508 -437 0
-508 -438 0
-508 -541 0
-508 -542 0
-508 -543 0
-508 -544 0
-508 -545 0
-435 -541 0
-435 -542 0
-508 -435 546 0
-489 -433 0
-489 -434 0
-489 -435 0
-489 -437 0
-489 -438 0
-489 -542 0
-489 -543 0
-489 -544 0
-489 -545 0
-489 -546 0
-436 -545 0
-436 -546 0
-489 -436 541 0
-490 -433 0
-490 -434 0
-490 -435 0
-490 -437 0
-490 -438 0
-490 -541 0
-490 -543 0
-490 -544 0
-490 -545 0
-490 -546 0
-436 -545 0
-436 -546 0
-490 -436 542 0
-491 -433 0
-491 -434 0
-491 -435 0
-491 -437 0
-491 -438 0
-491 -541 0
-491 -542 0
-491 -544 0
-491 -545 0
-491 -546 0
-436 -545 0
-436 -546 0
-491 -436 543 0
-492 -433 0
-492 -434 0
-492 -435 0
-492 -436 0
-492 -438 0
-492 -542 0
-492 -543 0
-492 -544 0
-492 -545 0
-492 -546 0
-437 -544 0
-437 -546 0
-492 -437 541 0
-493 -433 0
-493 -434 0
-493 -435 0
-493 -436 0
-493 -438 0
-493 -541 0
-493 -543 0
-493 -544 0
-493 -545 0
-493 -546 0
-437 -544 0
-437 -546 0
-493 -437 542 0
-494 -433 0
-494 -434 0
-494 -435 0
-494 -436 0
-494 -438 0
-494 -541 0
-494 -542 0
-494 -544 0
-494 -545 0
-494 -546 0
-437 -544 0
-437 -546 0
-494 -437 543 0
571 471 474 472 475 473 476 508 489 490 491 492 493 494 0
-571 -433 541 0
571 -433 -541 0
-571 -434 542 0
571 -434 -542 0
-571 -435 543 0
571 -435 -543 0
-571 -436 544 0
571 -436 -544 0
-571 -437 545 0
571 -437 -545 0
-571 -438 546 0
571 -438 -546 0
-477 -440 0
-477 -441 0
-477 -442 0
-477 -443 0
-477 -444 0
-477 -547 0
-477 -548 0
-477 -549 0
-477 -551 0
-477 -552 0
-439 -548 0
-439 -549 0
-477 -439 550 0
-480 -440 0
-480 -441 0
-480 -442 0
-480 -443 0
-480 -444 0
-480 -547 0
-480 -548 0
-480 -549 0
-480 -550 0
-480 -552 0
-439 -548 0
-439 -549 0
-480 -439 551 0
-509 -440 0
-509 -441 0
-509 -442 0
-509 -443 0
-509 -444 0
-509 -547 0
-509 -548 0
-509 -549 0
-509 -550 0
-509 -551 0
-439 -548 0
-439 -549 0
-509 -439 552 0
-478 -439 0
-478 -441 0
-478 -442 0
-478 -443 0
-478 -444 0
-478 -547 0
-478 -548 0
-478 -549 0
-478 -551 0
-478 -552 0
-440 -547 0
-440 -549 0
-440 -552 0
-478 -440 550 0
-481 -439 0
-481 -441 0
-481 -442 0
-481 -443 0
-481 -444 0
-481 -547 0
-481 -548 0
-481 -549 0
-481 -550 0
-481 -552 0
-440 -547 0
-440 -549 0
-440 -552 0
-481 -440 551 0
-479 -439 0
-479 -440 0
-479 -442 0
-479 -443 0
-479 -444 0
-479 -547 0
-479 -548 0
-479 -549 0
-479 -551 0
-479 -552 0
-441 -547 0
-441 -548 0
-441 -552 0
-479 -441 550 0
-482 -439 0
-482 -440 0
-482 -442 0
-482 -443 0
-482 -444 0
-482 -547 0
-482 -548 0
-482 -549 0
-482 -550 0
-482 -552 0
-441 -547 0
-441 -548 0
-441 -552 0
-482 -441 551 0
-495 -439 0
-495 -440 0
-495 -441 0
-495 -443 0
-495 -444 0
-495 -548 0
-495 -549 0
-495 -550 0
-495 -551 0
-495 -552 0
-442 -551 0
-442 -552 0
-495 -442 547 0
-496 -439 0
-496 -440 0
-496 -441 0
-496 -443 0
-496 -444 0
-496 -547 0
-496 -549 0
-496 -550 0
-496 -551 0
-496 -552 0
-442 -551 0
-442 -552 0
-496 -442 548 0
-497 -439 0
-497 -440 0
-497 -441 0
-497 -443 0
-497 -444 0
-497 -547 0
-497 -548 0
-497 -550 0
-497 -551 0
-497 -552 0
-442 -551 0
-442 -552 0
-497 -442 549 0
-498 -439 0
-498 -440 0
-498 -441 0
-498 -442 0
-498 -444 0
-498 -548 0
-498 -549 0
-498 -550 0
-498 -551 0
-498 -552 0
-443 -550 0
-443 -552 0
-498 -443 547 0
-499 -439 0
-499 -440 0
-499 -441 0
-499 -442 0
-499 -444 0
-499 -547 0
-499 -549 0
-499 -550 0
-499 -551 0
-499 -552 0
-443 -550 0
-443 -552 0
-499 -443 548 0
-500 -439 0
-500 -440 0
-500 -441 0
-500 -442 0
-500 -444 0
-500 -547 0
-500 -548 0
-500 -550 0
-500 -551 0
-500 -552 0
-443 -550 0
-443 -552 0
-500 -443 549 0
572 477 480 509 478 481 479 482 495 496 497 498 499 500 0
-572 -439 547 0
572 -439 -547 0
-572 -440 548 0
572 -440 -548 0
-572 -441 549 0
572 -441 -549 0
-572 -442 550 0
572 -442 -550 0
-572 -443 551 0
572 -443 -551 0
-572 -444 552 0
572 -444 -552 0
-520 445 0
-520 553 0
-521 -554 0
-521 -445 553 0
-521 -446 553 0
-523 -446 0
-523 -553 0
-523 -445 554 0
573 521 523 0
-573 -445 553 0
573 -445 -553 0
-573 -446 554 0
573 -446 -554 0
-483 -448 0
-483 -449 0
-483 -450 0
-483 -451 0
-483 -452 0
-483 -555 0
-483 -556 0
-483 -557 0
-483 -559 0
-483 -560 0
-447 -556 0
-447 -557 0
-483 -447 558 0
-486 -448 0
-486 -449 0
-486 -450 0
-486 -451 0
-486 -452 0
-486 -555 0
-486 -556 0
-486 -557 0
-486 -558 0
-486 -560 0
-447 -556 0
-447 -557 0
-486 -447 559 0
-507 -448 0
-507 -449 0
-507 -450 0
-507 -451 0
-507 -452 0
-507 -555 0
-507 -556 0
-507 -557 0
-507 -558 0
-507 -559 0
-447 -556 0
-447 -557 0
-507 -447 560 0
-484 -447 0
-484 -449 0
-484 -450 0
-484 -451 0
-484 -452 0
-484 -555 0
-484 -556 0
-484 -557 0
-484 -559 0
-484 -560 0
-448 -555 0
-448 -557 0
-448 -560 0
-484 -448 558 0
-487 -447 0
-487 -449 0
-487 -450 0
-487 -451 0
-487 -452 0
-487 -555 0
-487 -556 0
-487 -557 0
-487 -558 0
-487 -560 0
-448 -555 0
-448 -557 0
-448 -560 0
-487 -448 559 0
-485 -447 0
-485 -448 0
-485 -450 0
-485 -451 0
-485 -452 0
-485 -555 0
-485 -556 0
-485 -557 0
-485 -559 0
-485 -560 0
-449 -555 0
-449 -556 0
-449 -560 0
-485 -449 558 0
-488 -447 0
-488 -448 0
-488 -450 0
-488 -451 0
-488 -452 0
-488 -555 0
-488 -556 0
-488 -557 0
-488 -558 0
-488 -560 0
-449 -555 0
-449 -556 0
-449 -560 0
-488 -449 559 0
-501 -447 0
-501 -448 0
-501 -449 0
-501 -451 0
-501 -452 0
-501 -556 0
-501 -557 0
-501 -558 0
-501 -559 0
-501 -560 0
-450 -559 0
-450 -560 0
-501 -450 555 0
-502 -447 0
-502 -448 0
-502 -449 0
-502 -451 0
-502 -452 0
-502 -555 0
-502 -557 0
-502 -558 0
-502 -559 0
-502 -560 0
-450 -559 0
-450 -560 0
-502 -450 556 0
-503 -447 0
-503 -448 0
-503 -449 0
-503 -451 0
-503 -452 0
-503 -555 0
-503 -556 0
-503 -558 0
-503 -559 0
-503 -560 0
-450 -559 0
-450 -560 0
-503 -450 557 0
-504 -447 0
-504 -448 0
-504 -449 0
-504 -450 0
-504 -452 0
-504 -556 0
-504 -557 0
-504 -558 0
-504 -559 0
-504 -560 0
-451 -558 0
-451 -560 0
-504 -451 555 0
-505 -447 0
-505 -448 0
-505 -449 0
-505 -450 0
-505 -452 0
-505 -555 0
-505 -557 0
-505 -558 0
-505 -559 0
-505 -560 0
-451 -558 0
-451 -560 0
-505 -451 556 0
-506 -447 0
-506 -448 0
-506 -449 0
-506 -450 0
-506 -452 0
-506 -555 0
-506 -556 0
-506 -558 0
-506 -559 0
-506 -560 0
-451 -558 0
-451 -560 0
-506 -451 557 0
574 483 486 507 484 487 485 488 501 502 503 504 505 506 0
-574 -447 555 0
574 -447 -555 0
-574 -448 556 0
574 -448 -556 0
-574 -449 557 0
574 -449 -557 0
-574 -450 558 0
574 -450 -558 0
-574 -451 559 0
574 -451 -559 0
-574 -452 560 0
574 -452 -560 0
-525 -562 0
-525 -453 561 0
-525 -454 561 0
-527 -454 0
-527 -561 0
-527 -453 562 0
575 525 527 0
-575 -453 561 0
575 -453 -561 0
-575 -454 562 0
575 -454 -562 0
-508 -564 0
-455 -564 0
-508 -455 563 0
-508 -456 563 0
576 508 0
-576 -455 563 0
576 -455 -563 0
-576 -456 564 0
576 -456 -564 0
-509 -566 0
-457 -566 0
-509 -457 565 0
-509 -458 565 0
577 509 0
-577 -457 565 0
577 -457 -565 0
-577 -458 566 0
577 -458 -566 0
-507 -568 0
-459 -568 0
-507 -459 567 0
-507 -460 567 0
578 507 0
-578 -459 567 0
578 -459 -567 0
-578 -460 568 0
578 -460 -568 0
-618 -619 0
-618 -619 0
-579 -580 0
-579 -581 0
-579 -582 0
-579 -583 0
-579 -584 0
-579 -597 0
-579 -598 0
-579 -599 0
-579 -600 0
-579 -601 0
-579 -602 0
-579 -616 0
-580 -581 0
-580 -582 0
-580 -583 0
-580 -584 0
-580 -597 0
-580 -598 0
-580 -599 0
-580 -600 0
-580 -601 0
-580 -602 0
-580 -616 0
-581 -582 0
-581 -583 0
-581 -584 0
-581 -597 0
-581 -598 0
-581 -599 0
-581 -600 0
-581 -601 0
-581 -602 0
-581 -616 0
-582 -583 0
-582 -584 0
-582 -597 0
-582 -598 0
-582 -599 0
-582 -600 0
-582 -601 0
-582 -602 0
-582 -616 0
-583 -584 0
-583 -597 0
-583 -598 0
-583 -599 0
-583 -600 0
-583 -601 0
-583 -602 0
-583 -616 0
-584 -597 0
-584 -598 0
-584 -599 0
-584 -600 0
-584 -601 0
-584 -602 0
-584 -616 0
-597 -598 0
-597 -599 0
-597 -600 0
-597 -601 0
-597 -602 0
-597 -616 0
-598 -599 0
-598 -600 0
-598 -601 0
-598 -602 0
-598 -616 0
-599 -600 0
-599 -601 0
-599 -602 0
-599 -616 0
-600 -601 0
-600 -602 0
-600 -616 0
-601 -602 0
-601 -616 0
-602 -616 0
-585 -586 0
-585 -587 0
-585 -588 0
-585 -589 0
-585 -590 0
-585 -603 0
-585 -604 0
-585 -605 0
-585 -606 0
-585 -607 0
-585 -608 0
-585 -617 0
-586 -587 0
-586 -588 0
-586 -589 0
-586 -590 0
-586 -603 0
-586 -604 0
-586 -605 0
-586 -606 0
-586 -607 0
-586 -608 0
-586 -617 0
-587 -588 0
-587 -589 0
-587 -590 0
-587 -603 0
-587 -604 0
-587 -605 0
-587 -606 0
-587 -607 0
-587 -608 0
-587 -617 0
-588 -589 0
-588 -590 0
-588 -603 0
-588 -604 0
-588 -605 0
-588 -606 0
-588 -607 0
-588 -608 0
-588 -617 0
-589 -590 0
-589 -603 0
-589 -604 0
-589 -605 0
-589 -606 0
-589 -607 0
-589 -608 0
-589 -617 0
-590 -603 0
-590 -604 0
-590 -605 0
-590 -606 0
-590 -607 0
-590 -608 0
-590 -617 0
-603 -604 0
-603 -605 0
-603 -606 0
-603 -607 0
-603 -608 0
-603 -617 0
-604 -605 0
-604 -606 0
-604 -607 0
-604 -608 0
-604 -617 0
-605 -606 0
-605 -607 0
-605 -608 0
-605 -617 0
-606 -607 0
-606 -608 0
-606 -617 0
-607 -608 0
-607 -617 0
-608 -617 0
-579 -580 0
-579 -581 0
-579 -585 0
-579 -586 0
-579 -587 0
-579 -591 0
-579 -592 0
-579 -593 0
-579 -597 0
-579 -598 0
-579 -599 0
-579 -603 0
-579 -604 0
-579 -605 0
-579 -609 0
-579 -610 0
-579 -611 0
-580 -581 0
-580 -585 0
-580 -586 0
-580 -587 0
-580 -591 0
-580 -592 0
-580 -593 0
-580 -597 0
-580 -598 0
-580 -599 0
-580 -603 0
-580 -604 0
-580 -605 0
-580 -609 0
-580 -610 0
-580 -611 0
-581 -585 0
-581 -586 0
-581 -587 0
-581 -591 0
-581 -592 0
-581 -593 0
-581 -597 0
-581 -598 0
-581 -599 0
-581 -603 0
-581 -604 0
-581 -605 0
-581 -609 0
-581 -610 0
-581 -611 0
-585 -586 0
-585 -587 0
-585 -591 0
-585 -592 0
-585 -593 0
-585 -597 0
-585 -598 0
-585 -599 0
-585 -603 0
-585 -604 0
-585 -605 0
-585 -609 0
-585 -610 0
-585 -611 0
-586 -587 0
-586 -591 0
-586 -592 0
-586 -593 0
-586 -597 0
-586 -598 0
-586 -599 0
-586 -603 0
-586 -604 0
-586 -605 0
-586 -609 0
-586 -610 0
-586 -611 0
-587 -591 0
-587 -592 0
-587 -593 0
-587 -597 0
-587 -598 0
-587 -599 0
-587 -603 0
-587 -604 0
-587 -605 0
-587 -609 0
-587 -610 0
-587 -611 0
-591 -592 0
-591 -593 0
-591 -597 0
-591 -598 0
-591 -599 0
-591 -603 0
-591 -604 0
-591 -605 0
-591 -609 0
-591 -610 0
-591 -611 0
-592 -593 0
-592 -597 0
-592 -598 0
-592 -599 0
-592 -603 0
-592 -604 0
-592 -605 0
-592 -609 0
-592 -610 0
-592 -611 0
-593 -597 0
-593 -598 0
-593 -599 0
-593 -603 0
-593 -604 0
-593 -605 0
-593 -609 0
-593 -610 0
-593 -611 0
-597 -598 0
-597 -599 0
-597 -603 0
-597 -604 0
-597 -605 0
-597 -609 0
-597 -610 0
-597 -611 0
-598 -599 0
-598 -603 0
-598 -604 0
-598 -605 0
-598 -609 0
-598 -610 0
-598 -611 0
-599 -603 0
-599 -604 0
-599 -605 0
-599 -609 0
-599 -610 0
-599 -611 0
-603 -604 0
-603 -605 0
-603 -609 0
-603 -610 0
-603 -611 0
-604 -605 0
-604 -609 0
-604 -610 0
-604 -611 0
-605 -609 0
-605 -610 0
-605 -611 0
-609 -610 0
-609 -611 0
-610 -611 0
-591 -592 0
-591 -593 0
-591 -594 0
-591 -595 0
-591 -596 0
-591 -609 0
-591 -610 0
-591 -611 0
-591 -612 0
-591 -613 0
-591 -614 0
-591 -615 0
-592 -593 0
-592 -594 0
-592 -595 0
-592 -596 0
-592 -609 0
-592 -610 0
-592 -611 0
-592 -612 0
-592 -613 0
-592 -614 0
-592 -615 0
-593 -594 0
-593 -595 0
-593 -596 0
-593 -609 0
-593 -610 0
-593 -611 0
-593 -612 0
-593 -613 0
-593 -614 0
-593 -615 0
-594 -595 0
-594 -596 0
-594 -609 0
-594 -610 0
-594 -611 0
-594 -612 0
-594 -613 0
-594 -614 0
-594 -615 0
-595 -596 0
-595 -609 0
-595 -610 0
-595 -611 0
-595 -612 0
-595 -613 0
-595 -614 0
-595 -615 0
-596 -609 0
-596 -610 0
-596 -611 0
-596 -612 0
-596 -613 0
-596 -614 0
-596 -615 0
-609 -610 0
-609 -611 0
-609 -612 0
-609 -613 0
-609 -614 0
-609 -615 0
-610 -611 0
-610 -612 0
-610 -613 0
-610 -614 0
-610 -615 0
-611 -612 0
-611 -613 0
-611 -614 0
-611 -615 0
-612 -613 0
-612 -614 0
-612 -615 0
-613 -614 0
-613 -615 0
-614 -615 0
-582 -583 0
-582 -584 0
-582 -588 0
-582 -589 0
-582 -590 0
-582 -594 0
-582 -595 0
-582 -596 0
-582 -600 0
-582 -601 0
-582 -602 0
-582 -606 0
-582 -607 0
-582 -608 0
-582 -612 0
-582 -613 0
-582 -614 0
-583 -584 0
-583 -588 0
-583 -589 0
-583 -590 0
-583 -594 0
-583 -595 0
-583 -596 0
-583 -600 0
-583 -601 0
-583 -602 0
-583 -606 0
-583 -607 0
-583 -608 0
-583 -612 0
-583 -613 0
-583 -614 0
-584 -588 0
-584 -589 0
-584 -590 0
-584 -594 0
-584 -595 0
-584 -596 0
-584 -600 0
-584 -601 0
-584 -602 0
-584 -606 0
-584 -607 0
-584 -608 0
-584 -612 0
-584 -613 0
-584 -614 0
-588 -589 0
-588 -590 0
-588 -594 0
-588 -595 0
-588 -596 0
-588 -600 0
-588 -601 0
-588 -602 0
-588 -606 0
-588 -607 0
-588 -608 0
-588 -612 0
-588 -613 0
-588 -614 0
-589 -590 0
-589 -594 0
-589 -595 0
-589 -596 0
-589 -600 0
-589 -601 0
-589 -602 0
-589 -606 0
-589 -607 0
-589 -608 0
-589 -612 0
-589 -613 0
-589 -614 0
-590 -594 0
-590 -595 0
-590 -596 0
-590 -600 0
-590 -601 0
-590 -602 0
-590 -606 0
-590 -607 0
-590 -608 0
-590 -612 0
-590 -613 0
-590 -614 0
-594 -595 0
-594 -596 0
-594 -600 0
-594 -601 0
-594 -602 0
-594 -606 0
-594 -607 0
-594 -608 0
-594 -612 0
-594 -613 0
-594 -614 0
-595 -596 0
-595 -600 0
-595 -601 0
-595 -602 0
-595 -606 0
-595 -607 0
-595 -608 0
-595 -612 0
-595 -613 0
-595 -614 0
-596 -600 0
-596 -601 0
-596 -602 0
-596 -606 0
-596 -607 0
-596 -608 0
-596 -612 0
-596 -613 0
-596 -614 0
-600 -601 0
-600 -602 0
-600 -606 0
-600 -607 0
-600 -608 0
-600 -612 0
-600 -613 0
-600 -614 0
-601 -602 0
-601 -606 0
-601 -607 0
-601 -608 0
-601 -612 0
-601 -613 0
-601 -614 0
-602 -606 0
-602 -607 0
-602 -608 0
-602 -612 0
-602 -613 0
-602 -614 0
-606 -607 0
-606 -608 0
-606 -612 0
-606 -613 0
-606 -614 0
-607 -608 0
-607 -612 0
-607 -613 0
-607 -614 0
-608 -612 0
-608 -613 0
-608 -614 0
-612 -613 0
-612 -614 0
-613 -614 0
579 580 581 582 583 584 585 586 587 588 589 590 591 592 593 594 595 596 597 598 599 600 601 602 603 604 605 606 607 608 609 610 611 612 613 614 615 616 617 618 619 0
-579 620 0
-582 620 0
-585 620 0
-588 620 0
-591 620 0
-594 620 0
-597 620 0
-600 620 0
-603 620 0
-606 620 0
-609 620 0
-612 620 0
-620 579 582 585 588 591 594 597 600 603 606 609 612 0
-615 621 0
-616 621 0
-617 621 0
-621 615 616 617 0
-580 622 0
-583 622 0
-586 622 0
-589 622 0
-592 622 0
-595 622 0
-598 622 0
-601 622 0
-604 622 0
-607 622 0
-610 622 0
-613 622 0
-622 580 583 586 589 592 595 598 601 604 607 610 613 0
-581 623 0
-584 623 0
-587 623 0
-590 623 0
-593 623 0
-596 623 0
-599 623 0
-602 623 0
-605 623 0
-608 623 0
-611 623 0
-614 623 0
-623 581 584 587 590 593 596 599 602 605 608 611 614 0
-579 624 0
-580 624 0
-581 624 0
-582 624 0
-583 624 0
-584 624 0
-585 624 0
-586 624 0
-587 624 0
-588 624 0
-589 624 0
-590 624 0
-591 624 0
-592 624 0
-593 624 0
-594 624 0
-595 624 0
-596 624 0
-597 624 0
-598 624 0
-599 624 0
-600 624 0
-601 624 0
-602 624 0
-603 624 0
-604 624 0
-605 624 0
-606 624 0
-607 624 0
-608 624 0
-609 624 0
-610 624 0
-611 624 0
-612 624 0
-613 624 0
-614 624 0
-624 579 580 581 582 583 584 585 586 587 588 589 590 591 592 593 594 595 596 597 598 599 600 601 602 603 604 605 606 607 608 609 610 611 612 613 614 0
-615 625 0
-617 625 0
-625 615 617 0
-585 626 0
-586 626 0
-587 626 0
-588 626 0
-589 626 0
-590 626 0
-591 626 0
-592 626 0
-593 626 0
-594 626 0
-595 626 0
-596 626 0
-603 626 0
-604 626 0
-605 626 0
-606 626 0
-607 626 0
-608 626 0
-609 626 0
-610 626 0
-611 626 0
-612 626 0
-613 626 0
-614 626 0
-615 626 0
-617 626 0
-618 626 0
-619 626 0
-626 585 586 587 588 589 590 591 592 593 594 595 596 603 604 605 606 607 608 609 610 611 612 613 614 615 617 618 619 0
-579 627 0
-580 627 0
-581 627 0
-582 627 0
-583 627 0
-584 627 0
-591 627 0
-592 627 0
-593 627 0
-594 627 0
-595 627 0
-596 627 0
-597 627 0
-598 627 0
-599 627 0
-600 627 0
-601 627 0
-602 627 0
-609 627 0
-610 627 0
-611 627 0
-612 627 0
-613 627 0
-614 627 0
-615 627 0
-616 627 0
-618 627 0
-619 627 0
-627 579 580 581 582 583 584 591 592 593 594 595 596 597 598 599 600 601 602 609 610 611 612 613 614 615 616 618 619 0
-582 628 0
-583 628 0
-584 628 0
-588 628 0
-589 628 0
-590 628 0
-594 628 0
-595 628 0
-596 628 0
-600 628 0
-601 628 0
-602 628 0
-606 628 0
-607 628 0
-608 628 0
-612 628 0
-613 628 0
-614 628 0
-628 582 583 584 588 589 590 594 595 596 600 601 602 606 607 608 612 613 614 0
-597 629 0
-598 629 0
-599 629 0
-603 629 0
-604 629 0
-605 629 0
-609 629 0
-610 629 0
-611 629 0
-629 597 598 599 603 604 605 609 610 611 0
-615 630 0
-616 630 0
-617 630 0
-618 630 0
-619 630 0
-630 615 616 617 618 619 0
-579 631 0
-580 631 0
-581 631 0
-585 631 0
-586 631 0
-587 631 0
-591 631 0
-592 631 0
-593 631 0
-631 579 580 581 585 586 587 591 592 593 0
-579 632 0
-580 632 0
-581 632 0
-582 632 0
-583 632 0
-584 632 0
-585 632 0
-586 632 0
-587 632 0
-588 632 0
-589 632 0
-590 632 0
-597 632 0
-598 632 0
-599 632 0
-600 632 0
-601 632 0
-602 632 0
-603 632 0
-604 632 0
-605 632 0
-606 632 0
-607 632 0
-608 632 0
-616 632 0
-617 632 0
-618 632 0
-619 632 0
-632 579 580 581 582 583 584 585 586 587 588 589 590 597 598 599 600 601 602 603 604 605 606 607 608 616 617 618 619 0
-600 633 0
-601 633 0
-602 633 0
-606 633 0
-607 633 0
-608 633 0
-612 633 0
-613 633 0
-614 633 0
-633 600 601 602 606 607 608 612 613 614 0
-579 634 0
-580 634 0
-581 634 0
-585 634 0
-586 634 0
-587 634 0
-591 634 0
-592 634 0
-593 634 0
-597 634 0
-598 634 0
-599 634 0
-603 634 0
-604 634 0
-605 634 0
-609 634 0
-610 634 0
-611 634 0
-615 634 0
-616 634 0
-617 634 0
-618 634 0
-619 634 0
-634 579 580 581 585 586 587 591 592 593 597 598 599 603 604 605 609 610 611 615 616 617 618 619 0
-582 635 0
-583 635 0
-584 635 0
-588 635 0
-589 635 0
-590 635 0
-594 635 0
-595 635 0
-596 635 0
-635 582 583 584 588 589 590 594 595 596 0
-579 636 0
-580 636 0
-581 636 0
-582 636 0
-583 636 0
-584 636 0
-585 636 0
-586 636 0
-587 636 0
-588 636 0
-589 636 0
-590 636 0
-591 636 0
-592 636 0
-593 636 0
-594 636 0
-595 636 0
-596 636 0
-597 636 0
-598 636 0
-599 636 0
-600 636 0
-601 636 0
-602 636 0
-603 636 0
-604 636 0
-605 636 0
-606 636 0
-607 636 0
-608 636 0
-609 636 0
-610 636 0
-611 636 0
-612 636 0
-613 636 0
-614 636 0
-615 636 0
-617 636 0
-618 636 0
-619 636 0
-636 579 580 581 582 583 584 585 586 587 588 589 590 591 592 593 594 595 596 597 598 599 600 601 602 603 604 605 606 607 608 609 610 611 612 613 614 615 617 618 619 0
-579 637 0
-580 637 0
-581 637 0
-582 637 0
-583 637 0
-584 637 0
-585 637 0
-586 637 0
-587 637 0
-588 637 0
-589 637 0
-590 637 0
-591 637 0
-592 637 0
-593 637 0
-594 637 0
-595 637 0
-596 637 0
-597 637 0
-598 637 0
-599 637 0
-600 637 0
-601 637 0
-602 637 0
-603 637 0
-604 637 0
-605 637 0
-606 637 0
-607 637 0
-608 637 0
-609 637 0
-610 637 0
-611 637 0
-612 637 0
-613 637 0
-614 637 0
-615 637 0
-616 637 0
-618 637 0
-619 637 0
-637 579 580 581 582 583 584 585 586 587 588 589 590 591 592 593 594 595 596 597 598 599 600 601 602 603 604 605 606 607 608 609 610 611 612 613 614 615 616 618 619 0
-579 638 0
-580 638 0
-581 638 0
-582 638 0
-583 638 0
-584 638 0
-585 638 0
-586 638 0
-587 638 0
-588 638 0
-589 638 0
-590 638 0
-591 638 0
-592 638 0
-593 638 0
-594 638 0
-595 638 0
-596 638 0
-597 638 0
-598 638 0
-599 638 0
-600 638 0
-601 638 0
-602 638 0
-603 638 0
-604 638 0
-605 638 0
-606 638 0
-607 638 0
-608 638 0
-609 638 0
-610 638 0
-611 638 0
-612 638 0
-613 638 0
-614 638 0
-616 638 0
-617 638 0
-618 638 0
-619 638 0
-638 579 580 581 582 583 584 585 586 587 588 589 590 591 592 593 594 595 596 597 598 599 600 601 602 603 604 605 606 607 608 609 610 611 612 613 614 616 617 618 619 0
-639 -640 0
-639 -641 0
-640 -641 0
639 640 641 0
-642 -643 0
-642 -644 0
-642 -645 0
-642 -646 0
-642 -647 0
-642 -648 0
-643 -644 0
-643 -645 0
-643 -646 0
-643 -647 0
-643 -648 0
-644 -645 0
-644 -646 0
-644 -647 0
-644 -648 0
-645 -646 0
-645 -647 0
-645 -648 0
-646 -647 0
-646 -648 0
-647 -648 0
642 643 644 645 646 647 648 0
-649 -650 0
-649 -651 0
-649 -652 0
-649 -653 0
-649 -654 0
-650 -651 0
-650 -652 0
-650 -653 0
-650 -654 0
-651 -652 0
-651 -653 0
-651 -654 0
-652 -653 0
-652 -654 0
-653 -654 0
649 650 651 652 653 654 0
-655 -656 0
-655 -657 0
-655 -658 0
-655 -659 0
-655 -660 0
-656 -657 0
-656 -658 0
-656 -659 0
-656 -660 0
-657 -658 0
-657 -659 0
-657 -660 0
-658 -659 0
-658 -660 0
-659 -660 0
655 656 657 658 659 660 0
-661 -662 0
661 662 0
-663 -664 0
-663 -665 0
-663 -666 0
-663 -667 0
-663 -668 0
-664 -665 0
-664 -666 0
-664 -667 0
-664 -668 0
-665 -666 0
-665 -667 0
-665 -668 0
-666 -667 0
-666 -668 0
-667 -668 0
663 664 665 666 667 668 0
-669 -670 0
669 670 0
-671 -672 0
671 672 0
-673 -674 0
673 674 0
-675 -676 0
675 676 0
-620 531 0
-620 639 0
-618 -533 0
-618 -531 -639 0
-618 -532 -640 0
-622 532 0
-622 640 0
-619 -531 0
-619 -532 0
-619 -641 0
-623 533 0
-623 641 0
677 618 619 0
-677 -531 639 0
677 -531 -639 0
-677 -532 640 0
677 -532 -640 0
-677 -533 641 0
677 -533 -641 0
-619 -535 0
-619 -540 0
-619 -642 0
-619 -644 0
-534 -644 0
-534 -645 0
-534 -646 0
-534 -647 0
-534 -648 0
-619 -534 643 0
-536 -642 0
-536 -643 0
-536 -646 0
-536 -647 0
-536 -648 0
-619 -536 645 0
-537 -642 0
-537 -643 0
-537 -644 0
-537 -647 0
-537 -648 0
-619 -537 646 0
-538 -642 0
-538 -643 0
-538 -644 0
-538 -645 0
-538 -648 0
-619 -538 647 0
-539 -642 0
-539 -643 0
-539 -644 0
-539 -645 0
-539 -646 0
-619 -539 648 0
-625 535 536 537 538 539 540 0
-625 643 644 645 646 647 648 0
-618 -534 0
-618 -540 0
-618 -642 0
-618 -643 0
-535 -642 0
-535 -645 0
-535 -646 0
-535 -647 0
-535 -648 0
-618 -535 644 0
-536 -642 0
-536 -643 0
-536 -646 0
-536 -647 0
-536 -648 0
-618 -536 645 0
-537 -642 0
-537 -643 0
-537 -644 0
-537 -647 0
-537 -648 0
-618 -537 646 0
-538 -642 0
-538 -643 0
-538 -644 0
-538 -645 0
-538 -648 0
-618 -538 647 0
-539 -642 0
-539 -643 0
-539 -644 0
-539 -645 0
-539 -646 0
-618 -539 648 0
-616 536 537 0
-616 644 645 0
678 619 618 0
-678 -534 642 0
678 -534 -642 0
-678 -535 643 0
678 -535 -643 0
-678 -536 644 0
678 -536 -644 0
-678 -537 645 0
678 -537 -645 0
-678 -538 646 0
678 -538 -646 0
-678 -539 647 0
678 -539 -647 0
-678 -540 648 0
678 -540 -648 0
-579 -542 0
-579 -543 0
-579 -544 0
-579 -545 0
-579 -546 0
-579 -649 0
-579 -650 0
-579 -651 0
-579 -653 0
-579 -654 0
-541 -650 0
-541 -651 0
-541 -654 0
-579 -541 652 0
-582 -542 0
-582 -543 0
-582 -544 0
-582 -545 0
-582 -546 0
-582 -649 0
-582 -650 0
-582 -651 0
-582 -652 0
-582 -654 0
-541 -650 0
-541 -651 0
-541 -654 0
-582 -541 653 0
-580 -541 0
-580 -543 0
-580 -544 0
-580 -545 0
-580 -546 0
-580 -649 0
-580 -650 0
-580 -651 0
-580 -653 0
-580 -654 0
-542 -649 0
-542 -651 0
-542 -654 0
-580 -542 652 0
-583 -541 0
-583 -543 0
-583 -544 0
-583 -545 0
-583 -546 0
-583 -649 0
-583 -650 0
-583 -651 0
-583 -652 0
-583 -654 0
-542 -649 0
-542 -651 0
-542 -654 0
-583 -542 653 0
-581 -541 0
-581 -542 0
-581 -544 0
-581 -545 0
-581 -546 0
-581 -649 0
-581 -650 0
-581 -651 0
-581 -653 0
-581 -654 0
-543 -649 0
-543 -650 0
-581 -543 652 0
-584 -541 0
-584 -542 0
-584 -544 0
-584 -545 0
-584 -546 0
-584 -649 0
-584 -650 0
-584 -651 0
-584 -652 0
-584 -654 0
-543 -649 0
-543 -650 0
-584 -543 653 0
-616 -541 0
-616 -542 0
-616 -544 0
-616 -545 0
-616 -546 0
-616 -649 0
-616 -650 0
-616 -651 0
-616 -652 0
-616 -653 0
-543 -649 0
-543 -650 0
-616 -543 654 0
-597 -541 0
-597 -542 0
-597 -543 0
-597 -545 0
-597 -546 0
-597 -650 0
-597 -651 0
-597 -652 0
-597 -653 0
-597 -654 0
-544 -653 0
-544 -654 0
-597 -544 649 0
-598 -541 0
-598 -542 0
-598 -543 0
-598 -545 0
-598 -546 0
-598 -649 0
-598 -651 0
-598 -652 0
-598 -653 0
-598 -654 0
-544 -653 0
-544 -654 0
-598 -544 650 0
-599 -541 0
-599 -542 0
-599 -543 0
-599 -545 0
-599 -546 0
-599 -649 0
-599 -650 0
-599 -652 0
-599 -653 0
-599 -654 0
-544 -653 0
-544 -654 0
-599 -544 651 0
-600 -541 0
-600 -542 0
-600 -543 0
-600 -544 0
-600 -546 0
-600 -650 0
-600 -651 0
-600 -652 0
-600 -653 0
-600 -654 0
-545 -652 0
-545 -654 0
-600 -545 649 0
-601 -541 0
-601 -542 0
-601 -543 0
-601 -544 0
-601 -546 0
-601 -649 0
-601 -651 0
-601 -652 0
-601 -653 0
-601 -654 0
-545 -652 0
-545 -654 0
-601 -545 650 0
-602 -541 0
-602 -542 0
-602 -543 0
-602 -544 0
-602 -546 0
-602 -649 0
-602 -650 0
-602 -652 0
-602 -653 0
-602 -654 0
-545 -652 0
-545 -654 0
-602 -545 651 0
679 579 582 580 583 581 584 616 597 598 599 600 601 602 0
-679 -541 649 0
679 -541 -649 0
-679 -542 650 0
679 -542 -650 0
-679 -543 651 0
679 -543 -651 0
-679 -544 652 0
679 -544 -652 0
-679 -545 653 0
679 -545 -653 0
-679 -546 654 0
679 -546 -654 0
-585 -548 0
-585 -549 0
-585 -550 0
-585 -551 0
-585 -552 0
-585 -655 0
-585 -656 0
-585 -657 0
-585 -659 0
-585 -660 0
-547 -656 0
-547 -657 0
-585 -547 658 0
-588 -548 0
-588 -549 0
-588 -550 0
-588 -551 0
-588 -552 0
-588 -655 0
-588 -656 0
-588 -657 0
-588 -658 0
-588 -660 0
-547 -656 0
-547 -657 0
-588 -547 659 0
-617 -548 0
-617 -549 0
-617 -550 0
-617 -551 0
-617 -552 0
-617 -655 0
-617 -656 0
-617 -657 0
-617 -658 0
-617 -659 0
-547 -656 0
-547 -657 0
-617 -547 660 0
-586 -547 0
-586 -549 0
-586 -550 0
-586 -551 0
-586 -552 0
-586 -655 0
-586 -656 0
-586 -657 0
-586 -659 0
-586 -660 0
-548 -655 0
-548 -657 0
-548 -660 0
-586 -548 658 0
-589 -547 0
-589 -549 0
-589 -550 0
-589 -551 0
-589 -552 0
-589 -655 0
-589 -656 0
-589 -657 0
-589 -658 0
-589 -660 0
-548 -655 0
-548 -657 0
-548 -660 0
-589 -548 659 0
-587 -547 0
-587 -548 0
-587 -550 0
-587 -551 0
-587 -552 0
-587 -655 0
-587 -656 0
-587 -657 0
-587 -659 0
-587 -660 0
-549 -655 0
-549 -656 0
-549 -660 0
-587 -549 658 0
-590 -547 0
-590 -548 0
-590 -550 0
-590 -551 0
-590 -552 0
-590 -655 0
-590 -656 0
-590 -657 0
-590 -658 0
-590 -660 0
-549 -655 0
-549 -656 0
-549 -660 0
-590 -549 659 0
-603 -547 0
-603 -548 0
-603 -549 0
-603 -551 0
-603 -552 0
-603 -656 0
-603 -657 0
-603 -658 0
-603 -659 0
-603 -660 0
-550 -659 0
-550 -660 0
-603 -550 655 0
-604 -547 0
-604 -548 0
-604 -549 0
-604 -551 0
-604 -552 0
-604 -655 0
-604 -657 0
-604 -658 0
-604 -659 0
-604 -660 0
-550 -659 0
-550 -660 0
-604 -550 656 0
-605 -547 0
-605 -548 0
-605 -549 0
-605 -551 0
-605 -552 0
-605 -655 0
-605 -656 0
-605 -658 0
-605 -659 0
-605 -660 0
-550 -659 0
-550 -660 0
-605 -550 657 0
-606 -547 0
-606 -548 0
-606 -549 0
-606 -550 0
-606 -552 0
-606 -656 0
-606 -657 0
-606 -658 0
-606 -659 0
-606 -660 0
-551 -658 0
-551 -660 0
-606 -551 655 0
-607 -547 0
-607 -548 0
-607 -549 0
-607 -550 0
-607 -552 0
-607 -655 0
-607 -657 0
-607 -658 0
-607 -659 0
-607 -660 0
-551 -658 0
-551 -660 0
-607 -551 656 0
-608 -547 0
-608 -548 0
-608 -549 0
-608 -550 0
-608 -552 0
-608 -655 0
-608 -656 0
-608 -658 0
-608 -659 0
-608 -660 0
-551 -658 0
-551 -660 0
-608 -551 657 0
680 585 588 617 586 589 587 590 603 604 605 606 607 608 0
-680 -547 655 0
680 -547 -655 0
-680 -548 656 0
680 -548 -656 0
-680 -549 657 0
680 -549 -657 0
-680 -550 658 0
680 -550 -658 0
-680 -551 659 0
680 -551 -659 0
-680 -552 660 0
680 -552 -660 0
-628 553 0
-628 661 0
-629 -662 0
-629 -553 661 0
-629 -554 661 0
-631 -554 0
-631 -661 0
-631 -553 662 0
681 629 631 0
-681 -553 661 0
681 -553 -661 0
-681 -554 662 0
681 -554 -662 0
-591 -556 0
-591 -557 0
-591 -558 0
-591 -559 0
-591 -560 0
-591 -663 0
-591 -664 0
-591 -665 0
-591 -667 0
-591 -668 0
-555 -664 0
-555 -665 0
-591 -555 666 0
-594 -556 0
-594 -557 0
-594 -558 0
-594 -559 0
-594 -560 0
-594 -663 0
-594 -664 0
-594 -665 0
-594 -666 0
-594 -668 0
-555 -664 0
-555 -665 0
-594 -555 667 0
-615 -556 0
-615 -557 0
-615 -558 0
-615 -559 0
-615 -560 0
-615 -663 0
-615 -664 0
-615 -665 0
-615 -666 0
-615 -667 0
-555 -664 0
-555 -665 0
-615 -555 668 0
-592 -555 0
-592 -557 0
-592 -558 0
-592 -559 0
-592 -560 0
-592 -663 0
-592 -664 0
-592 -665 0
-592 -667 0
-592 -668 0
-556 -663 0
-556 -665 0
-556 -668 0
-592 -556 666 0
-595 -555 0
-595 -557 0
-595 -558 0
-595 -559 0
-595 -560 0
-595 -663 0
-595 -664 0
-595 -665 0
-595 -666 0
-595 -668 0
-556 -663 0
-556 -665 0
-556 -668 0
-595 -556 667 0
-593 -555 0
-593 -556 0
-593 -558 0
-593 -559 0
-593 -560 0
-593 -663 0
-593 -664 0
-593 -665 0
-593 -667 0
-593 -668 0
-557 -663 0
-557 -664 0
-557 -668 0
-593 -557 666 0
-596 -555 0
-596 -556 0
-596 -558 0
-596 -559 0
-596 -560 0
-596 -663 0
-596 -664 0
-596 -665 0
-596 -666 0
-596 -668 0
-557 -663 0
-557 -664 0
-557 -668 0
-596 -557 667 0
-609 -555 0
-609 -556 0
-609 -557 0
-609 -559 0
-609 -560 0
-609 -664 0
-609 -665 0
-609 -666 0
-609 -667 0
-609 -668 0
-558 -667 0
-558 -668 0
-609 -558 663 0
-610 -555 0
-610 -556 0
-610 -557 0
-610 -559 0
-610 -560 0
-610 -663 0
-610 -665 0
-610 -666 0
-610 -667 0
-610 -668 0
-558 -667 0
-558 -668 0
-610 -558 664 0
-611 -555 0
-611 -556 0
-611 -557 0
-611 -559 0
-611 -560 0
-611 -663 0
-611 -664 0
-611 -666 0
-611 -667 0
-611 -668 0
-558 -667 0
-558 -668 0
-611 -558 665 0
-612 -555 0
-612 -556 0
-612 -557 0
-612 -558 0
-612 -560 0
-612 -664 0
-612 -665 0
-612 -666 0
-612 -667 0
-612 -668 0
-559 -666 0
-559 -668 0
-612 -559 663 0
-613 -555 0
-613 -556 0
-613 -557 0
-613 -558 0
-613 -560 0
-613 -663 0
-613 -665 0
-613 -666 0
-613 -667 0
-613 -668 0
-559 -666 0
-559 -668 0
-613 -559 664 0
-614 -555 0
-614 -556 0
-614 -557 0
-614 -558 0
-614 -560 0
-614 -663 0
-614 -664 0
-614 -666 0
-614 -667 0
-614 -668 0
-559 -666 0
-559 -668 0
-614 -559 665 0
682 591 594 615 592 595 593 596 609 610 611 612 613 614 0
-682 -555 663 0
682 -555 -663 0
-682 -556 664 0
682 -556 -664 0
-682 -557 665 0
682 -557 -665 0
-682 -558 666 0
682 -558 -666 0
-682 -559 667 0
682 -559 -667 0
-682 -560 668 0
682 -560 -668 0
-633 -670 0
-633 -561 669 0
-633 -562 669 0
-635 -562 0
-635 -669 0
-635 -561 670 0
683 633 635 0
-683 -561 669 0
683 -561 -669 0
-683 -562 670 0
683 -562 -670 0
-616 -672 0
-563 -672 0
-616 -563 671 0
-616 -564 671 0
684 616 0
-684 -563 671 0
684 -563 -671 0
-684 -564 672 0
684 -564 -672 0
-617 -674 0
-565 -674 0
-617 -565 673 0
-617 -566 673 0
685 617 0
-685 -565 673 0
685 -565 -673 0
-685 -566 674 0
685 -566 -674 0
-615 -676 0
-567 -676 0
-615 -567 675 0
-615 -568 675 0
686 615 0
-686 -567 675 0
686 -567 -675 0
-686 -568 676 0
686 -568 -676 0
-726 -727 0
-726 -727 0
-687 -688 0
-687 -689 0
-687 -690 0
-687 -691 0
-687 -692 0
-687 -705 0
-687 -706 0
-687 -707 0
-687 -708 0
-687 -709 0
-687 -710 0
-687 -724 0
-688 -689 0
-688 -690 0
-688 -691 0
-688 -692 0
-688 -705 0
-688 -706 0
-688 -707 0
-688 -708 0
-688 -709 0
-688 -710 0
-688 -724 0
-689 -690 0
-689 -691 0
-689 -692 0
-689 -705 0
-689 -706 0
-689 -707 0
-689 -708 0
-689 -709 0
-689 -710 0
-689 -724 0
-690 -691 0
-690 -692 0
-690 -705 0
-690 -706 0
-690 -707 0
-690 -708 0
-690 -709 0
-690 -710 0
-690 -724 0
-691 -692 0
-691 -705 0
-691 -706 0
-691 -707 0
-691 -708 0
-691 -709 0
-691 -710 0
-691 -724 0
-692 -705 0
-692 -706 0
-692 -707 0
-692 -708 0
-692 -709 0
-692 -710 0
-692 -724 0
-705 -706 0
-705 -707 0
-705 -708 0
-705 -709 0
-705 -710 0
-705 -724 0
-706 -707 0
-706 -708 0
-706 -709 0
-706 -710 0
-706 -724 0
-707 -708 0
-707 -709 0
-707 -710 0
-707 -724 0
-708 -709 0
-708 -710 0
-708 -724 0
-709 -710 0
-709 -724 0
-710 -724 0
-693 -694 0
-693 -695 0
-693 -696 0
-693 -697 0
-693 -698 0
-693 -711 0
-693 -712 0
-693 -713 0
-693 -714 0
-693 -715 0
-693 -716 0
-693 -725 0
-694 -695 0
-694 -696 0
-694 -697 0
-694 -698 0
-694 -711 0
-694 -712 0
-694 -713 0
-694 -714 0
-694 -715 0
-694 -716 0
-694 -725 0
-695 -696 0
-695 -697 0
-695 -698 0
-695 -711 0
-695 -712 0
-695 -713 0
-695 -714 0
-695 -715 0
-695 -716 0
-695 -725 0
-696 -697 0
-696 -698 0
-696 -711 0
-696 -712 0
-696 -713 0
-696 -714 0
-696 -715 0
-696 -716 0
-696 -725 0
-697 -698 0
-697 -711 0
-697 -712 0
-697 -713 0
-697 -714 0
-697 -715 0
-697 -716 0
-697 -725 0
-698 -711 0
-698 -712 0
-698 -713 0
-698 -714 0
-698 -715 0
-698 -716 0
-698 -725 0
-711 -712 0
-711 -713 0
-711 -714 0
-711 -715 0
-711 -716 0
-711 -725 0
-712 -713 0
-712 -714 0
-712 -715 0
-712 -716 0
-712 -725 0
-713 -714 0
-713 -715 0
-713 -716 0
-713 -725 0
-714 -715 0
-714 -716 0
-714 -725 0
-715 -716 0
-715 -725 0
-716 -725 0
-687 -688 0
-687 -689 0
-687 -693 0
-687 -694 0
-687 -695 0
-687 -699 0
-687 -700 0
-687 -701 0
-687 -705 0
-687 -706 0
-687 -707 0
-687 -711 0
-687 -712 0
-687 -713 0
-687 -717 0
-687 -718 0
-687 -719 0
-688 -689 0
-688 -693 0
-688 -694 0
-688 -695 0
-688 -699 0
-688 -700 0
-688 -701 0
-688 -705 0
-688 -706 0
-688 -707 0
-688 -711 0
-688 -712 0
-688 -713 0
-688 -717 0
-688 -718 0
-688 -719 0
-689 -693 0
-689 -694 0
-689 -695 0
-689 -699 0
-689 -700 0
-689 -701 0
-689 -705 0
-689 -706 0
-689 -707 0
-689 -711 0
-689 -712 0
-689 -713 0
-689 -717 0
-689 -718 0
-689 -719 0
-693 -694 0
-693 -695 0
-693 -699 0
-693 -700 0
-693 -701 0
-693 -705 0
-693 -706 0
-693 -707 0
-693 -711 0
-693 -712 0
-693 -713 0
-693 -717 0
-693 -718 0
-693 -719 0
-694 -695 0
-694 -699 0
-694 -700 0
-694 -701 0
-694 -705 0
-694 -706 0
-694 -707 0
-694 -711 0
-694 -712 0
-694 -713 0
-694 -717 0
-694 -718 0
-694 -719 0
-695 -699 0
-695 -700 0
-695 -701 0
-695 -705 0
-695 -706 0
-695 -707 0
-695 -711 0
-695 -712 0
-695 -713 0
-695 -717 0
-695 -718 0
-695 -719 0
-699 -700 0
-699 -701 0
-699 -705 0
-699 -706 0
-699 -707 0
-699 -711 0
-699 -712 0
-699 -713 0
-699 -717 0
-699 -718 0
-699 -719 0
-700 -701 0
-700 -705 0
-700 -706 0
-700 -707 0
-700 -711 0
-700 -712 0
-700 -713 0
-700 -717 0
-700 -718 0
-700 -719 0
-701 -705 0
-701 -706 0
-701 -707 0
-701 -711 0
-701 -712 0
-701 -713 0
-701 -717 0
-701 -718 0
-701 -719 0
-705 -706 0
-705 -707 0
-705 -711 0
-705 -712 0
-705 -713 0
-705 -717 0
-705 -718 0
-705 -719 0
-706 -707 0
-706 -711 0
-706 -712 0
-706 -713 0
-706 -717 0
-706 -718 0
-706 -719 0
-707 -711 0
-707 -712 0
-707 -713 0
-707 -717 0
-707 -718 0
-707 -719 0
-711 -712 0
-711 -713 0
-711 -717 0
-711 -718 0
-711 -719 0
-712 -713 0
-712 -717 0
-712 -718 0
-712 -719 0
-713 -717 0
-713 -718 0
-713 -719 0
-717 -718 0
-717 -719 0
-718 -719 0
-699 -700 0
-699 -701 0
-699 -702 0
-699 -703 0
-699 -704 0
-699 -717 0
-699 -718 0
-699 -719 0
-699 -720 0
-699 -721 0
-699 -722 0
-699 -723 0
-700 -701 0
-700 -702 0
-700 -703 0
-700 -704 0
-700 -717 0
-700 -718 0
-700 -719 0
-700 -720 0
-700 -721 0
-700 -722 0
-700 -723 0
-701 -702 0
-701 -703 0
-701 -704 0
-701 -717 0
-701 -718 0
-701 -719 0
-701 -720 0
-701 -721 0
-701 -722 0
-701 -723 0
-702 -703 0
-702 -704 0
-702 -717 0
-702 -718 0
-702 -719 0
-702 -720 0
-702 -721 0
-702 -722 0
-702 -723 0
-703 -704 0
-703 -717 0
-703 -718 0
-703 -719 0
-703 -720 0
-703 -721 0
-703 -722 0
-703 -723 0
-704 -717 0
-704 -718 0
-704 -719 0
-704 -720 0
-704 -721 0
-704 -722 0
-704 -723 0
-717 -718 0
-717 -719 0
-717 -720 0
-717 -721 0
-717 -722 0
-717 -723 0
-718 -719 0
-718 -720 0
-718 -721 0
-718 -722 0
-718 -723 0
-719 -720 0
-719 -721 0
-719 -722 0
-719 -723 0
-720 -721 0
-720 -722 0
-720 -723 0
-721 -722 0
-721 -723 0
-722 -723 0
-690 -691 0
-690 -692 0
-690 -696 0
-690 -697 0
-690 -698 0
-690 -702 0
-690 -703 0
-690 -704 0
-690 -708 0
-690 -709 0
-690 -710 0
-690 -714 0
-690 -715 0
-690 -716 0
-690 -720 0
-690 -721 0
-690 -722 0
-691 -692 0
-691 -696 0
-691 -697 0
-691 -698 0
-691 -702 0
-691 -703 0
-691 -704 0
-691 -708 0
-691 -709 0
-691 -710 0
-691 -714 0
-691 -715 0
-691 -716 0
-691 -720 0
-691 -721 0
-691 -722 0
-692 -696 0
-692 -697 0
-692 -698 0
-692 -702 0
-692 -703 0
-692 -704 0
-692 -708 0
-692 -709 0
-692 -710 0
-692 -714 0
-692 -715 0
-692 -716 0
-692 -720 0
-692 -721 0
-692 -722 0
-696 -697 0
-696 -698 0
-696 -702 0
-696 -703 0
-696 -704 0
-696 -708 0
-696 -709 0
-696 -710 0
-696 -714 0
-696 -715 0
-696 -716 0
-696 -720 0
-696 -721 0
-696 -722 0
-697 -698 0
-697 -702 0
-697 -703 0
-697 -704 0
-697 -708 0
-697 -709 0
-697 -710 0
-697 -714 0
-697 -715 0
-697 -716 0
-697 -720 0
-697 -721 0
-697 -722 0
-698 -702 0
-698 -703 0
-698 -704 0
-698 -708 0
-698 -709 0
-698 -710 0
-698 -714 0
-698 -715 0
-698 -716 0
-698 -720 0
-698 -721 0
-698 -722 0
-702 -703 0
-702 -704 0
-702 -708 0
-702 -709 0
-702 -710 0
-702 -714 0
-702 -715 0
-702 -716 0
-702 -720 0
-702 -721 0
-702 -722 0
-703 -704 0
-703 -708 0
-703 -709 0
-703 -710 0
-703 -714 0
-703 -715 0
-703 -716 0
-703 -720 0
-703 -721 0
-703 -722 0
-704 -708 0
-704 -709 0
-704 -710 0
-704 -714 0
-704 -715 0
-704 -716 0
-704 -720 0
-704 -721 0
-704 -722 0
-708 -709 0
-708 -710 0
-708 -714 0
-708 -715 0
-708 -716 0
-708 -720 0
-708 -721 0
-708 -722 0
-709 -710 0
-709 -714 0
-709 -715 0
-709 -716 0
-709 -720 0
-709 -721 0
-709 -722 0
-710 -714 0
-710 -715 0
-710 -716 0
-710 -720 0
-710 -721 0
-710 -722 0
-714 -715 0
-714 -716 0
-714 -720 0
-714 -721 0
-714 -722 0
-715 -716 0
-715 -720 0
-715 -721 0
-715 -722 0
-716 -720 0
-716 -721 0
-716 -722 0
-720 -721 0
-720 -722 0
-721 -722 0
687 688 689 690 691 692 693 694 695 696 697 698 699 700 701 702 703 704 705 706 707 708 709 710 711 712 713 714 715 716 717 718 719 720 721 722 723 724 725 726 727 0
-687 728 0
-690 728 0
-693 728 0
-696 728 0
-699 728 0
-702 728 0
-705 728 0
-708 728 0
-711 728 0
-714 728 0
-717 728 0
-720 728 0
-728 687 690 693 696 699 702 705 708 711 714 717 720 0
-723 729 0
-724 729 0
-725 729 0
-729 723 724 725 0
-688 730 0
-691 730 0
-694 730 0
-697 730 0
-700 730 0
-703 730 0
-706 730 0
-709 730 0
-712 730 0
-715 730 0
-718 730 0
-721 730 0
-730 688 691 694 697 700 703 706 709 712 715 718 721 0
-689 731 0
-692 731 0
-695 731 0
-698 731 0
-701 731 0
-704 731 0
-707 731 0
-710 731 0
-713 731 0
-716 731 0
-719 731 0
-722 731 0
-731 689 692 695 698 701 704 707 710 713 716 719 722 0
-687 732 0
-688 732 0
-689 732 0
-690 732 0
-691 732 0
-692 732 0
-693 732 0
-694 732 0
-695 732 0
-696 732 0
-697 732 0
-698 732 0
-699 732 0
-700 732 0
-701 732 0
-702 732 0
-703 732 0
-704 732 0
-705 732 0
-706 732 0
-707 732 0
-708 732 0
-709 732 0
-710 732 0
-711 732 0
-712 732 0
-713 732 0
-714 732 0
-715 732 0
-716 732 0
-717 732 0
-718 732 0
-719 732 0
-720 732 0
-721 732 0
-722 732 0
-732 687 688 689 690 691 692 693 694 695 696 697 698 699 700 701 702 703 704 705 706 707 708 709 710 711 712 713 714 715 716 717 718 719 720 721 722 0
-723 733 0
-725 733 0
-733 723 725 0
-693 734 0
-694 734 0
-695 734 0
-696 734 0
-697 734 0
-698 734 0
-699 734 0
-700 734 0
-701 734 0
-702 734 0
-703 734 0
-704 734 0
-711 734 0
-712 734 0
-713 734 0
-714 734 0
-715 734 0
-716 734 0
-717 734 0
-718 734 0
-719 734 0
-720 734 0
-721 734 0
-722 734 0
-723 734 0
-725 734 0
-726 734 0
-727 734 0
-734 693 694 695 696 697 698 699 700 701 702 703 704 711 712 713 714 715 716 717 718 719 720 721 722 723 725 726 727 0
-687 735 0
-688 735 0
-689 735 0
-690 735 0
-691 735 0
-692 735 0
-699 735 0
-700 735 0
-701 735 0
-702 735 0
-703 735 0
-704 735 0
-705 735 0
-706 735 0
-707 735 0
-708 735 0
-709 735 0
-710 735 0
-717 735 0
-718 735 0
-719 735 0
-720 735 0
-721 735 0
-722 735 0
-723 735 0
-724 735 0
-726 735 0
-727 735 0
-735 687 688 689 690 691 692 699 700 701 702 703 704 705 706 707 708 709 710 717 718 719 720 721 722 723 724 726 727 0
-690 736 0
-691 736 0
-692 736 0
-696 736 0
-697 736 0
-698 736 0
-702 736 0
-703 736 0
-704 736 0
-708 736 0
-709 736 0
-710 736 0
-714 736 0
-715 736 0
-716 736 0
-720 736 0
-721 736 0
-722 736 0
-736 690 691 692 696 697 698 702 703 704 708 709 710 714 715 716 720 721 722 0
-705 737 0
-706 737 0
-707 737 0
-711 737 0
-712 737 0
-713 737 0
-717 737 0
-718 737 0
-719 737 0
-737 705 706 707 711 712 713 717 718 719 0
-723 738 0
-724 738 0
-725 738 0
-726 738 0
-727 738 0
-738 723 724 725 726 727 0
-687 739 0
-688 739 0
-689 739 0
-693 739 0
-694 739 0
-695 739 0
-699 739 0
-700 739 0
-701 739 0
-739 687 688 689 693 694 695 699 700 701 0
-687 740 0
-688 740 0
-689 740 0
-690 740 0
-691 740 0
-692 740 0
-693 740 0
-694 740 0
-695 740 0
-696 740 0
-697 740 0
-698 740 0
-705 740 0
-706 740 0
-707 740 0
-708 740 0
-709 740 0
-710 740 0
-711 740 0
-712 740 0
-713 740 0
-714 740 0
-715 740 0
-716 740 0
-724 740 0
-725 740 0
-726 740 0
-727 740 0
-740 687 688 689 690 691 692 693 694 695 696 697 698 705 706 707 708 709 710 711 712 713 714 715 716 724 725 726 727 0
-708 741 0
-709 741 0
-710 741 0
-714 741 0
-715 741 0
-716 741 0
-720 741 0
-721 741 0
-722 741 0
-741 708 709 710 714 715 716 720 721 722 0
-687 742 0
-688 742 0
-689 742 0
-693 742 0
-694 742 0
-695 742 0
-699 742 0
-700 742 0
-701 742 0
-705 742 0
-706 742 0
-707 742 0
-711 742 0
-712 742 0
-713 742 0
-717 742 0
-718 742 0
-719 742 0
-723 742 0
-724 742 0
-725 742 0
-726 742 0
-727 742 0
-742 687 688 689 693 694 695 699 700 701 705 706 707 711 712 713 717 718 719 723 724 725 726 727 0
-690 743 0
-691 743 0
-692 743 0
-696 743 0
-697 743 0
-698 743 0
-702 743 0
-703 743 0
-704 743 0
-743 690 691 692 696 697 698 702 703 704 0
-687 744 0
-688 744 0
-689 744 0
-690 744 0
-691 744 0
-692 744 0
-693 744 0
-694 744 0
-695 744 0
-696 744 0
-697 744 0
-698 744 0
-699 744 0
-700 744 0
-701 744 0
-702 744 0
-703 744 0
-704 744 0
-705 744 0
-706 744 0
-707 744 0
-708 744 0
-709 744 0
-710 744 0
-711 744 0
-712 744 0
-713 744 0
-714 744 0
-715 744 0
-716 744 0
-717 744 0
-718 744 0
-719 744 0
-720 744 0
-721 744 0
-722 744 0
-723 744 0
-725 744 0
-726 744 0
-727 744 0
-744 687 688 689 690 691 692 693 694 695 696 697 698 699 700 701 702 703 704 705 706 707 708 709 710 711 712 713 714 715 716 717 718 719 720 721 722 723 725 726 727 0
-687 745 0
-688 745 0
-689 745 0
-690 745 0
-691 745 0
-692 745 0
-693 745 0
-694 745 0
-695 745 0
-696 745 0
-697 745 0
-698 745 0
-699 745 0
-700 745 0
-701 745 0
-702 745 0
-703 745 0
-704 745 0
-705 745 0
-706 745 0
-707 745 0
-708 745 0
-709 745 0
-710 745 0
-711 745 0
-712 745 0
-713 745 0
-714 745 0
-715 745 0
-716 745 0
-717 745 0
-718 745 0
-719 745 0
-720 745 0
-721 745 0
-722 745 0
-723 745 0
-724 745 0
-726 745 0
-727 745 0
-745 687 688 689 690 691 692 693 694 695 696 697 698 699 700 701 702 703 704 705 706 707 708 709 710 711 712 713 714 715 716 717 718 719 720 721 722 723 724 726 727 0
-687 746 0
-688 746 0
-689 746 0
-690 746 0
-691 746 0
-692 746 0
-693 746 0
-694 746 0
-695 746 0
-696 746 0
-697 746 0
-698 746 0
-699 746 0
-700 746 0
-701 746 0
-702 746 0
-703 746 0
-704 746 0
-705 746 0
-706 746 0
-707 746 0
-708 746 0
-709 746 0
-710 746 0
-711 746 0
-712 746 0
-713 746 0
-714 746 0
-715 746 0
-716 746 0
-717 746 0
-718 746 0
-719 746 0
-720 746 0
-721 746 0
-722 746 0
-724 746 0
-725 746 0
-726 746 0
-727 746 0
-746 687 688 689 690 691 692 693 694 695 696 697 698 699 700 701 702 703 704 705 706 707 708 709 710 711 712 713 714 715 716 717 718 719 720 721 722 724 725 726 727 0
-747 -748 0
-747 -749 0
-748 -749 0
747 748 749 0
-750 -751 0
-750 -752 0
-750 -753 0
-750 -754 0
-750 -755 0
-750 -756 0
-751 -752 0
-751 -753 0
-751 -754 0
-751 -755 0
-751 -756 0
-752 -753 0
-752 -754 0
-752 -755 0
-752 -756 0
-753 -754 0
-753 -755 0
-753 -756 0
-754 -755 0
-754 -756 0
-755 -756 0
750 751 752 753 754 755 756 0
-757 -758 0
-757 -759 0
-757 -760 0
-757 -761 0
-757 -762 0
-758 -759 0
-758 -760 0
-758 -761 0
-758 -762 0
-759 -760 0
-759 -761 0
-759 -762 0
-760 -761 0
-760 -762 0
-761 -762 0
757 758 759 760 761 762 0
-763 -764 0
-763 -765 0
-763 -766 0
-763 -767 0
-763 -768 0
-764 -765 0
-764 -766 0
-764 -767 0
-764 -768 0
-765 -766 0
-765 -767 0
-765 -768 0
-766 -767 0
-766 -768 0
-767 -768 0
763 764 765 766 767 768 0
-769 -770 0
769 770 0
-771 -772 0
-771 -773 0
-771 -774 0
-771 -775 0
-771 -776 0
-772 -773 0
-772 -774 0
-772 -775 0
-772 -776 0
-773 -774 0
-773 -775 0
-773 -776 0
-774 -775 0
-774 -776 0
-775 -776 0
771 772 773 774 775 776 0
-777 -778 0
777 778 0
-779 -780 0
779 780 0
-781 -782 0
781 782 0
-783 -784 0
783 784 0
-728 639 0
-728 747 0
-726 -641 0
-726 -639 -747 0
-726 -640 -748 0
-730 640 0
-730 748 0
-727 -639 0
-727 -640 0
-727 -749 0
-731 641 0
-731 749 0
785 726 727 0
-785 -639 747 0
785 -639 -747 0
-785 -640 748 0
785 -640 -748 0
-785 -641 749 0
785 -641 -749 0
-727 -643 0
-727 -648 0
-727 -750 0
-727 -752 0
-642 -752 0
-642 -753 0
-642 -754 0
-642 -755 0
-642 -756 0
-727 -642 751 0
-644 -750 0
-644 -751 0
-644 -754 0
-644 -755 0
-644 -756 0
-727 -644 753 0
-645 -750 0
-645 -751 0
-645 -752 0
-645 -755 0
-645 -756 0
-727 -645 754 0
-646 -750 0
-646 -751 0
-646 -752 0
-646 -753 0
-646 -756 0
-727 -646 755 0
-647 -750 0
-647 -751 0
-647 -752 0
-647 -753 0
-647 -754 0
-727 -647 756 0
-733 643 644 645 646 647 648 0
-733 751 752 753 754 755 756 0
-726 -642 0
-726 -648 0
-726 -750 0
-726 -751 0
-643 -750 0
-643 -753 0
-643 -754 0
-643 -755 0
-643 -756 0
-726 -643 752 0
-644 -750 0
-644 -751 0
-644 -754 0
-644 -755 0
-644 -756 0
-726 -644 753 0
-645 -750 0
-645 -751 0
-645 -752 0
-645 -755 0
-645 -756 0
-726 -645 754 0
-646 -750 0
-646 -751 0
-646 -752 0
-646 -753 0
-646 -756 0
-726 -646 755 0
-647 -750 0
-647 -751 0
-647 -752 0
-647 -753 0
-647 -754 0
-726 -647 756 0
-724 644 645 0
-724 752 753 0
786 727 726 0
-786 -642 750 0
786 -642 -750 0
-786 -643 751 0
786 -643 -751 0
-786 -644 752 0
786 -644 -752 0
-786 -645 753 0
786 -645 -753 0
-786 -646 754 0
786 -646 -754 0
-786 -647 755 0
786 -647 -755 0
-786 -648 756 0
786 -648 -756 0
-687 -650 0
-687 -651 0
-687 -652 0
-687 -653 0
-687 -654 0
-687 -757 0
-687 -758 0
-687 -759 0
-687 -761 0
-687 -762 0
-649 -758 0
-649 -759 0
-649 -762 0
-687 -649 760 0
-690 -650 0
-690 -651 0
-690 -652 0
-690 -653 0
-690 -654 0
-690 -757 0
-690 -758 0
-690 -759 0
-690 -760 0
-690 -762 0
-649 -758 0
-649 -759 0
-649 -762 0
-690 -649 761 0
-688 -649 0
-688 -651 0
-688 -652 0
-688 -653 0
-688 -654 0
-688 -757 0
-688 -758 0
-688 -759 0
-688 -761 0
-688 -762 0
-650 -757 0
-650 -759 0
-650 -762 0
-688 -650 760 0
-691 -649 0
-691 -651 0
-691 -652 0
-691 -653 0
-691 -654 0
-691 -757 0
-691 -758 0
-691 -759 0
-691 -760 0
-691 -762 0
-650 -757 0
-650 -759 0
-650 -762 0
-691 -650 761 0
-689 -649 0
-689 -650 0
-689 -652 0
-689 -653 0
-689 -654 0
-689 -757 0
-689 -758 0
-689 -759 0
-689 -761 0
-689 -762 0
-651 -757 0
-651 -758 0
-689 -651 760 0
-692 -649 0
-692 -650 0
-692 -652 0
-692 -653 0
-692 -654 0
-692 -757 0
-692 -758 0
-692 -759 0
-692 -760 0
-692 -762 0
-651 -757 0
-651 -758 0
-692 -651 761 0
-724 -649 0
-724 -650 0
-724 -652 0
-724 -653 0
-724 -654 0
-724 -757 0
-724 -758 0
-724 -759 0
-724 -760 0
-724 -761 0
-651 -757 0
-651 -758 0
-724 -651 762 0
-705 -649 0
-705 -650 0
-705 -651 0
-705 -653 0
-705 -654 0
-705 -758 0
-705 -759 0
-705 -760 0
-705 -761 0
-705 -762 0
-652 -761 0
-652 -762 0
-705 -652 757 0
-706 -649 0
-706 -650 0
-706 -651 0
-706 -653 0
-706 -654 0
-706 -757 0
-706 -759 0
-706 -760 0
-706 -761 0
-706 -762 0
-652 -761 0
-652 -762 0
-706 -652 758 0
-707 -649 0
-707 -650 0
-707 -651 0
-707 -653 0
-707 -654 0
-707 -757 0
-707 -758 0
-707 -760 0
-707 -761 0
-707 -762 0
-652 -761 0
-652 -762 0
-707 -652 759 0
-708 -649 0
-708 -650 0
-708 -651 0
-708 -652 0
-708 -654 0
-708 -758 0
-708 -759 0
-708 -760 0
-708 -761 0
-708 -762 0
-653 -760 0
-653 -762 0
-708 -653 757 0
-709 -649 0
-709 -650 0
-709 -651 0
-709 -652 0
-709 -654 0
-709 -757 0
-709 -759 0
-709 -760 0
-709 -761 0
-709 -762 0
-653 -760 0
-653 -762 0
-709 -653 758 0
-710 -649 0
-710 -650 0
-710 -651 0
-710 -652 0
-710 -654 0
-710 -757 0
-710 -758 0
-710 -760 0
-710 -761 0
-710 -762 0
-653 -760 0
-653 -762 0
-710 -653 759 0
787 687 690 688 691 689 692 724 705 706 707 708 709 710 0
-787 -649 757 0
787 -649 -757 0
-787 -650 758 0
787 -650 -758 0
-787 -651 759 0
787 -651 -759 0
-787 -652 760 0
787 -652 -760 0
-787 -653 761 0
787 -653 -761 0
-787 -654 762 0
787 -654 -762 0
-693 -656 0
-693 -657 0
-693 -658 0
-693 -659 0
-693 -660 0
-693 -763 0
-693 -764 0
-693 -765 0
-693 -767 0
-693 -768 0
-655 -764 0
-655 -765 0
-693 -655 766 0
-696 -656 0
-696 -657 0
-696 -658 0
-696 -659 0
-696 -660 0
-696 -763 0
-696 -764 0
-696 -765 0
-696 -766 0
-696 -768 0
-655 -764 0
-655 -765 0
-696 -655 767 0
-725 -656 0
-725 -657 0
-725 -658 0
-725 -659 0
-725 -660 0
-725 -763 0
-725 -764 0
-725 -765 0
-725 -766 0
-725 -767 0
-655 -764 0
-655 -765 0
-725 -655 768 0
-694 -655 0
-694 -657 0
-694 -658 0
-694 -659 0
-694 -660 0
-694 -763 0
-694 -764 0
-694 -765 0
-694 -767 0
-694 -768 0
-656 -763 0
-656 -765 0
-656 -768 0
-694 -656 766 0
-697 -655 0
-697 -657 0
-697 -658 0
-697 -659 0
-697 -660 0
-697 -763 0
-697 -764 0
-697 -765 0
-697 -766 0
-697 -768 0
-656 -763 0
-656 -765 0
-656 -768 0
-697 -656 767 0
-695 -655 0
-695 -656 0
-695 -658 0
-695 -659 0
-695 -660 0
-695 -763 0
-695 -764 0
-695 -765 0
-695 -767 0
-695 -768 0
-657 -763 0
-657 -764 0
-657 -768 0
-695 -657 766 0
-698 -655 0
-698 -656 0
-698 -658 0
-698 -659 0
-698 -660 0
-698 -763 0
-698 -764 0
-698 -765 0
-698 -766 0
-698 -768 0
-657 -763 0
-657 -764 0
-657 -768 0
-698 -657 767 0
-711 -655 0
-711 -656 0
-711 -657 0
-711 -659 0
-711 -660 0
-711 -764 0
-711 -765 0
-711 -766 0
-711 -767 0
-711 -768 0
-658 -767 0
-658 -768 0
-711 -658 763 0
-712 -655 0
-712 -656 0
-712 -657 0
-712 -659 0
-712 -660 0
-712 -763 0
-712 -765 0
-712 -766 0
-712 -767 0
-712 -768 0
-658 -767 0
-658 -768 0
-712 -658 764 0
-713 -655 0
-713 -656 0
-713 -657 0
-713 -659 0
-713 -660 0
-713 -763 0
-713 -764 0
-713 -766 0
-713 -767 0
-713 -768 0
-658 -767 0
-658 -768 0
-713 -658 765 0
-714 -655 0
-714 -656 0
-714 -657 0
-714 -658 0
-714 -660 0
-714 -764 0
-714 -765 0
-714 -766 0
-714 -767 0
-714 -768 0
-659 -766 0
-659 -768 0
-714 -659 763 0
-715 -655 0
-715 -656 0
-715 -657 0
-715 -658 0
-715 -660 0
-715 -763 0
-715 -765 0
-715 -766 0
-715 -767 0
-715 -768 0
-659 -766 0
-659 -768 0
-715 -659 764 0
-716 -655 0
-716 -656 0
-716 -657 0
-716 -658 0
-716 -660 0
-716 -763 0
-716 -764 0
-716 -766 0
-716 -767 0
-716 -768 0
-659 -766 0
-659 -768 0
-716 -659 765 0
788 693 696 725 694 697 695 698 711 712 713 714 715 716 0
-788 -655 763 0
788 -655 -763 0
-788 -656 764 0
788 -656 -764 0
-788 -657 765 0
788 -657 -765 0
-788 -658 766 0
788 -658 -766 0
-788 -659 767 0
788 -659 -767 0
-788 -660 768 0
788 -660 -768 0
-736 661 0
-736 769 0
-737 -770 0
-737 -661 769 0
-737 -662 769 0
-739 -662 0
-739 -769 0
-739 -661 770 0
789 737 739 0
-789 -661 769 0
789 -661 -769 0
-789 -662 770 0
789 -662 -770 0
-699 -664 0
-699 -665 0
-699 -666 0
-699 -667 0
-699 -668 0
-699 -771 0
-699 -772 0
-699 -773 0
-699 -775 0
-699 -776 0
-663 -772 0
-663 -773 0
-699 -663 774 0
-702 -664 0
-702 -665 0
-702 -666 0
-702 -667 0
-702 -668 0
-702 -771 0
-702 -772 0
-702 -773 0
-702 -774 0
-702 -776 0
-663 -772 0
-663 -773 0
-702 -663 775 0
-723 -664 0
-723 -665 0
-723 -666 0
-723 -667 0
-723 -668 0
-723 -771 0
-723 -772 0
-723 -773 0
-723 -774 0
-723 -775 0
-663 -772 0
-663 -773 0
-723 -663 776 0
-700 -663 0
-700 -665 0
-700 -666 0
-700 -667 0
-700 -668 0
-700 -771 0
-700 -772 0
-700 -773 0
-700 -775 0
-700 -776 0
-664 -771 0
-664 -773 0
-664 -776 0
-700 -664 774 0
-703 -663 0
-703 -665 0
-703 -666 0
-703 -667 0
-703 -668 0
-703 -771 0
-703 -772 0
-703 -773 0
-703 -774 0
-703 -776 0
-664 -771 0
-664 -773 0
-664 -776 0
-703 -664 775 0
-701 -663 0
-701 -664 0
-701 -666 0
-701 -667 0
-701 -668 0
-701 -771 0
-701 -772 0
-701 -773 0
-701 -775 0
-701 -776 0
-665 -771 0
-665 -772 0
-665 -776 0
-701 -665 774 0
-704 -663 0
-704 -664 0
-704 -666 0
-704 -667 0
-704 -668 0
-704 -771 0
-704 -772 0
-704 -773 0
-704 -774 0
-704 -776 0
-665 -771 0
-665 -772 0
-665 -776 0
-704 -665 775 0
-717 -663 0
-717 -664 0
-717 -665 0
-717 -667 0
-717 -668 0
-717 -772 0
-717 -773 0
-717 -774 0
-717 -775 0
-717 -776 0
-666 -775 0
-666 -776 0
-717 -666 771 0
-718 -663 0
-718 -664 0
-718 -665 0
-718 -667 0
-718 -668 0
-718 -771 0
-718 -773 0
-718 -774 0
-718 -775 0
-718 -776 0
-666 -775 0
-666 -776 0
-718 -666 772 0
-719 -663 0
-719 -664 0
-719 -665 0
-719 -667 0
-719 -668 0
-719 -771 0
-719 -772 0
-719 -774 0
-719 -775 0
-719 -776 0
-666 -775 0
-666 -776 0
-719 -666 773 0
-720 -663 0
-720 -664 0
-720 -665 0
-720 -666 0
-720 -668 0
-720 -772 0
-720 -773 0
-720 -774 0
-720 -775 0
-720 -776 0
-667 -774 0
-667 -776 0
-720 -667 771 0
-721 -663 0
-721 -664 0
-721 -665 0
-721 -666 0
-721 -668 0
-721 -771 0
-721 -773 0
-721 -774 0
-721 -775 0
-721 -776 0
-667 -774 0
-667 -776 0
-721 -667 772 0
-722 -663 0
-722 -664 0
-722 -665 0
-722 -666 0
-722 -668 0
-722 -771 0
-722 -772 0
-722 -774 0
-722 -775 0
-722 -776 0
-667 -774 0
-667 -776 0
-722 -667 773 0
790 699 702 723 700 703 701 704 717 718 719 720 721 722 0
-790 -663 771 0
790 -663 -771 0
-790 -664 772 0
790 -664 -772 0
-790 -665 773 0
790 -665 -773 0
-790 -666 774 0
790 -666 -774 0
-790 -667 775 0
790 -667 -775 0
-790 -668 776 0
790 -668 -776 0
-741 -778 0
-741 -669 777 0
-741 -670 777 0
-743 -670 0
-743 -777 0
-743 -669 778 0
791 741 743 0
-791 -669 777 0
791 -669 -777 0
-791 -670 778 0
791 -670 -778 0
-724 -780 0
-671 -780 0
-724 -671 779 0
-724 -672 779 0
792 724 0
-792 -671 779 0
792 -671 -779 0
-792 -672 780 0
792 -672 -780 0
-725 -782 0
-673 -782 0
-725 -673 781 0
-725 -674 781 0
793 725 0
-793 -673 781 0
793 -673 -781 0
-793 -674 782 0
793 -674 -782 0
-723 -784 0
-675 -784 0
-723 -675 783 0
-723 -676 783 0
794 723 0
-794 -675 783 0
794 -675 -783 0
-794 -676 784 0
794 -676 -784 0
-834 -835 0
-834 -835 0
-795 -796 0
-795 -797 0
-795 -798 0
-795 -799 0
-795 -800 0
-795 -813 0
-795 -814 0
-795 -815 0
-795 -816 0
-795 -817 0
-795 -818 0
-795 -832 0
-796 -797 0
-796 -798 0
-796 -799 0
-796 -800 0
-796 -813 0
-796 -814 0
-796 -815 0
-796 -816 0
-796 -817 0
-796 -818 0
-796 -832 0
-797 -798 0
-797 -799 0
-797 -800 0
-797 -813 0
-797 -814 0
-797 -815 0
-797 -816 0
-797 -817 0
-797 -818 0
-797 -832 0
-798 -799 0
-798 -800 0
-798 -813 0
-798 -814 0
-798 -815 0
-798 -816 0
-798 -817 0
-798 -818 0
-798 -832 0
-799 -800 0
-799 -813 0
-799 -814 0
-799 -815 0
-799 -816 0
-799 -817 0
-799 -818 0
-799 -832 0
-800 -813 0
-800 -814 0
-800 -815 0
-800 -816 0
-800 -817 0
-800 -818 0
-800 -832 0
-813 -814 0
-813 -815 0
-813 -816 0
-813 -817 0
-813 -818 0
-813 -832 0
-814 -815 0
-814 -816 0
-814 -817 0
-814 -818 0
-814 -832 0
-815 -816 0
-815 -817 0
-815 -818 0
-815 -832 0
-816 -817 0
-816 -818 0
-816 -832 0
-817 -818 0
-817 -832 0
-818 -832 0
-801 -802 0
-801 -803 0
-801 -804 0
-801 -805 0
-801 -806 0
-801 -819 0
-801 -820 0
-801 -821 0
-801 -822 0
-801 -823 0
-801 -824 0
-801 -833 0
-802 -803 0
-802 -804 0
-802 -805 0
-802 -806 0
-802 -819 0
-802 -820 0
-802 -821 0
-802 -822 0
-802 -823 0
-802 -824 0
-802 -833 0
-803 -804 0
-803 -805 0
-803 -806 0
-803 -819 0
-803 -820 0
-803 -821 0
-803 -822 0
-803 -823 0
-803 -824 0
-803 -833 0
-804 -805 0
-804 -806 0
-804 -819 0
-804 -820 0
-804 -821 0
-804 -822 0
-804 -823 0
-804 -824 0
-804 -833 0
-805 -806 0
-805 -819 0
-805 -820 0
-805 -821 0
-805 -822 0
-805 -823 0
-805 -824 0
-805 -833 0
-806 -819 0
-806 -820 0
-806 -821 0
-806 -822 0
-806 -823 0
-806 -824 0
-806 -833 0
-819 -820 0
-819 -821 0
-819 -822 0
-819 -823 0
-819 -824 0
-819 -833 0
-820 -821 0
-820 -822 0
-820 -823 0
-820 -824 0
-820 -833 0
-821 -822 0
-821 -823 0
-821 -824 0
-821 -833 0
-822 -823 0
-822 -824 0
-822 -833 0
-823 -824 0
-823 -833 0
-824 -833 0
-795 -796 0
-795 -797 0
-795 -801 0
-795 -802 0
-795 -803 0
-795 -807 0
-795 -808 0
-795 -809 0
-795 -813 0
-795 -814 0
-795 -815 0
-795 -819 0
-795 -820 0
-795 -821 0
-795 -825 0
-795 -826 0
-795 -827 0
-796 -797 0
-796 -801 0
-796 -802 0
-796 -803 0
-796 -807 0
-796 -808 0
-796 -809 0
-796 -813 0
-796 -814 0
-796 -815 0
-796 -819 0
-796 -820 0
-796 -821 0
-796 -825 0
-796 -826 0
-796 -827 0
-797 -801 0
-797 -802 0
-797 -803 0
-797 -807 0
-797 -808 0
-797 -809 0
-797 -813 0
-797 -814 0
-797 -815 0
-797 -819 0
-797 -820 0
-797 -821 0
-797 -825 0
-797 -826 0
-797 -827 0
-801 -802 0
-801 -803 0
-801 -807 0
-801 -808 0
-801 -809 0
-801 -813 0
-801 -814 0
-801 -815 0
-801 -819 0
-801 -820 0
-801 -821 0
-801 -825 0
-801 -826 0
-801 -827 0
-802 -803 0
-802 -807 0
-802 -808 0
-802 -809 0
-802 -813 0
-802 -814 0
-802 -815 0
-802 -819 0
-802 -820 0
-802 -821 0
-802 -825 0
-802 -826 0
-802 -827 0
-803 -807 0
-803 -808 0
-803 -809 0
-803 -813 0
-803 -814 0
-803 -815 0
-803 -819 0
-803 -820 0
-803 -821 0
-803 -825 0
-803 -826 0
-803 -827 0
-807 -808 0
-807 -809 0
-807 -813 0
-807 -814 0
-807 -815 0
-807 -819 0
-807 -820 0
-807 -821 0
-807 -825 0
-807 -826 0
-807 -827 0
-808 -809 0
-808 -813 0
-808 -814 0
-808 -815 0
-808 -819 0
-808 -820 0
-808 -821 0
-808 -825 0
-808 -826 0
-808 -827 0
-809 -813 0
-809 -814 0
-809 -815 0
-809 -819 0
-809 -820 0
-809 -821 0
-809 -825 0
-809 -826 0
-809 -827 0
-813 -814 0
-813 -815 0
-813 -819 0
-813 -820 0
-813 -821 0
-813 -825 0
-813 -826 0
-813 -827 0
-814 -815 0
-814 -819 0
-814 -820 0
-814 -821 0
-814 -825 0
-814 -826 0
-814 -827 0
-815 -819 0
-815 -820 0
-815 -821 0
-815 -825 0
-815 -826 0
-815 -827 0
-819 -820 0
-819 -821 0
-819 -825 0
-819 -826 0
-819 -827 0
-820 -821 0
-820 -825 0
-820 -826 0
-820 -827 0
-821 -825 0
-821 -826 0
-821 -827 0
-825 -826 0
-825 -827 0
-826 -827 0
-807 -808 0
-807 -809 0
-807 -810 0
-807 -811 0
-807 -812 0
-807 -825 0
-807 -826 0
-807 -827 0
-807 -828 0
-807 -829 0
-807 -830 0
-807 -831 0
-808 -809 0
-808 -810 0
-808 -811 0
-808 -812 0
-808 -825 0
-808 -826 0
-808 -827 0
-808 -828 0
-808 -829 0
-808 -830 0
-808 -831 0
-809 -810 0
-809 -811 0
-809 -812 0
-809 -825 0
-809 -826 0
-809 -827 0
-809 -828 0
-809 -829 0
-809 -830 0
-809 -831 0
-810 -811 0
-810 -812 0
-810 -825 0
-810 -826 0
-810 -827 0
-810 -828 0
-810 -829 0
-810 -830 0
-810 -831 0
-811 -812 0
-811 -825 0
-811 -826 0
-811 -827 0
-811 -828 0
-811 -829 0
-811 -830 0
-811 -831 0
-812 -825 0
-812 -826 0
-812 -827 0
-812 -828 0
-812 -829 0
-812 -830 0
-812 -831 0
-825 -826 0
-825 -827 0
-825 -828 0
-825 -829 0
-825 -830 0
-825 -831 0
-826 -827 0
-826 -828 0
-826 -829 0
-826 -830 0
-826 -831 0
-827 -828 0
-827 -829 0
-827 -830 0
-827 -831 0
-828 -829 0
-828 -830 0
-828 -831 0
-829 -830 0
-829 -831 0
-830 -831 0
-798 -799 0
-798 -800 0
-798 -804 0
-798 -805 0
-798 -806 0
-798 -810 0
-798 -811 0
-798 -812 0
-798 -816 0
-798 -817 0
-798 -818 0
-798 -822 0
-798 -823 0
-798 -824 0
-798 -828 0
-798 -829 0
-798 -830 0
-799 -800 0
-799 -804 0
-799 -805 0
-799 -806 0
-799 -810 0
-799 -811 0
-799 -812 0
-799 -816 0
-799 -817 0
-799 -818 0
-799 -822 0
-799 -823 0
-799 -824 0
-799 -828 0
-799 -829 0
-799 -830 0
-800 -804 0
-800 -805 0
-800 -806 0
-800 -810 0
-800 -811 0
-800 -812 0
-800 -816 0
-800 -817 0
-800 -818 0
-800 -822 0
-800 -823 0
-800 -824 0
-800 -828 0
-800 -829 0
-800 -830 0
-804 -805 0
-804 -806 0
-804 -810 0
-804 -811 0
-804 -812 0
-804 -816 0
-804 -817 0
-804 -818 0
-804 -822 0
-804 -823 0
-804 -824 0
-804 -828 0
-804 -829 0
-804 -830 0
-805 -806 0
-805 -810 0
-805 -811 0
-805 -812 0
-805 -816 0
-805 -817 0
-805 -818 0
-805 -822 0
-805 -823 0
-805 -824 0
-805 -828 0
-805 -829 0
-805 -830 0
-806 -810 0
-806 -811 0
-806 -812 0
-806 -816 0
-806 -817 0
-806 -818 0
-806 -822 0
-806 -823 0
-806 -824 0
-806 -828 0
-806 -829 0
-806 -830 0
-810 -811 0
-810 -812 0
-810 -816 0
-810 -817 0
-810 -818 0
-810 -822 0
-810 -823 0
-810 -824 0
-810 -828 0
-810 -829 0
-810 -830 0
-811 -812 0
-811 -816 0
-811 -817 0
-811 -818 0
-811 -822 0
-811 -823 0
-811 -824 0
-811 -828 0
-811 -829 0
-811 -830 0
-812 -816 0
-812 -817 0
-812 -818 0
-812 -822 0
-812 -823 0
-812 -824 0
-812 -828 0
-812 -829 0
-812 -830 0
-816 -817 0
-816 -818 0
-816 -822 0
-816 -823 0
-816 -824 0
-816 -828 0
-816 -829 0
-816 -830 0
-817 -818 0
-817 -822 0
-817 -823 0
-817 -824 0
-817 -828 0
-817 -829 0
-817 -830 0
-818 -822 0
-818 -823 0
-818 -824 0
-818 -828 0
-818 -829 0
-818 -830 0
-822 -823 0
-822 -824 0
-822 -828 0
-822 -829 0
-822 -830 0
-823 -824 0
-823 -828 0
-823 -829 0
-823 -830 0
-824 -828 0
-824 -829 0
-824 -830 0
-828 -829 0
-828 -830 0
-829 -830 0
795 796 797 798 799 800 801 802 803 804 805 806 807 808 809 810 811 812 813 814 815 816 817 818 819 820 821 822 823 824 825 826 827 828 829 830 831 832 833 834 835 0
-795 836 0
-798 836 0
-801 836 0
-804 836 0
-807 836 0
-810 836 0
-813 836 0
-816 836 0
-819 836 0
-822 836 0
-825 836 0
-828 836 0
-836 795 798 801 804 807 810 813 816 819 822 825 828 0
-831 837 0
-832 837 0
-833 837 0
-837 831 832 833 0
-796 838 0
-799 838 0
-802 838 0
-805 838 0
-808 838 0
-811 838 0
-814 838 0
-817 838 0
-820 838 0
-823 838 0
-826 838 0
-829 838 0
-838 796 799 802 805 808 811 814 817 820 823 826 829 0
-797 839 0
-800 839 0
-803 839 0
-806 839 0
-809 839 0
-812 839 0
-815 839 0
-818 839 0
-821 839 0
-824 839 0
-827 839 0
-830 839 0
-839 797 800 803 806 809 812 815 818 821 824 827 830 0
-795 840 0
-796 840 0
-797 840 0
-798 840 0
-799 840 0
-800 840 0
-801 840 0
-802 840 0
-803 840 0
-804 840 0
-805 840 0
-806 840 0
-807 840 0
-808 840 0
-809 840 0
-810 840 0
-811 840 0
-812 840 0
-813 840 0
-814 840 0
-815 840 0
-816 840 0
-817 840 0
-818 840 0
-819 840 0
-820 840 0
-821 840 0
-822 840 0
-823 840 0
-824 840 0
-825 840 0
-826 840 0
-827 840 0
-828 840 0
-829 840 0
-830 840 0
-840 795 796 797 798 799 800 801 802 803 804 805 806 807 808 809 810 811 812 813 814 815 816 817 818 819 820 821 822 823 824 825 826 827 828 829 830 0
-831 841 0
-833 841 0
-841 831 833 0
-801 842 0
-802 842 0
-803 842 0
-804 842 0
-805 842 0
-806 842 0
-807 842 0
-808 842 0
-809 842 0
-810 842 0
-811 842 0
-812 842 0
-819 842 0
-820 842 0
-821 842 0
-822 842 0
-823 842 0
-824 842 0
-825 842 0
-826 842 0
-827 842 0
-828 842 0
-829 842 0
-830 842 0
-831 842 0
-833 842 0
-834 842 0
-835 842 0
-842 801 802 803 804 805 806 807 808 809 810 811 812 819 820 821 822 823 824 825 826 827 828 829 830 831 833 834 835 0
-795 843 0
-796 843 0
-797 843 0
-798 843 0
-799 843 0
-800 843 0
-807 843 0
-808 843 0
-809 843 0
-810 843 0
-811 843 0
-812 843 0
-813 843 0
-814 843 0
-815 843 0
-816 843 0
-817 843 0
-818 843 0
-825 843 0
-826 843 0
-827 843 0
-828 843 0
-829 843 0
-830 843 0
-831 843 0
-832 843 0
-834 843 0
-835 843 0
-843 795 796 797 798 799 800 807 808 809 810 811 812 813 814 815 816 817 818 825 826 827 828 829 830 831 832 834 835 0
-798 844 0
-799 844 0
-800 844 0
-804 844 0
-805 844 0
-806 844 0
-810 844 0
-811 844 0
-812 844 0
-816 844 0
-817 844 0
-818 844 0
-822 844 0
-823 844 0
-824 844 0
-828 844 0
-829 844 0
-830 844 0
-844 798 799 800 804 805 806 810 811 812 816 817 818 822 823 824 828 829 830 0
-813 845 0
-814 845 0
-815 845 0
-819 845 0
-820 845 0
-821 845 0
-825 845 0
-826 845 0
-827 845 0
-845 813 814 815 819 820 821 825 826 827 0
-831 846 0
-832 846 0
-833 846 0
-834 846 0
-835 846 0
-846 831 832 833 834 835 0
-795 847 0
-796 847 0
-797 847 0
-801 847 0
-802 847 0
-803 847 0
-807 847 0
-808 847 0
-809 847 0
-847 795 796 797 801 802 803 807 808 809 0
-795 848 0
-796 848 0
-797 848 0
-798 848 0
-799 848 0
-800 848 0
-801 848 0
-802 848 0
-803 848 0
-804 848 0
-805 848 0
-806 848 0
-813 848 0
-814 848 0
-815 848 0
-816 848 0
-817 848 0
-818 848 0
-819 848 0
-820 848 0
-821 848 0
-822 848 0
-823 848 0
-824 848 0
-832 848 0
-833 848 0
-834 848 0
-835 848 0
-848 795 796 797 798 799 800 801 802 803 804 805 806 813 814 815 816 817 818 819 820 821 822 823 824 832 833 834 835 0
-816 849 0
-817 849 0
-818 849 0
-822 849 0
-823 849 0
-824 849 0
-828 849 0
-829 849 0
-830 849 0
-849 816 817 818 822 823 824 828 829 830 0
-795 850 0
-796 850 0
-797 850 0
-801 850 0
-802 850 0
-803 850 0
-807 850 0
-808 850 0
-809 850 0
-813 850 0
-814 850 0
-815 850 0
-819 850 0
-820 850 0
-821 850 0
-825 850 0
-826 850 0
-827 850 0
-831 850 0
-832 850 0
-833 850 0
-834 850 0
-835 850 0
-850 795 796 797 801 802 803 807 808 809 813 814 815 819 820 821 825 826 827 831 832 833 834 835 0
-798 851 0
-799 851 0
-800 851 0
-804 851 0
-805 851 0
-806 851 0
-810 851 0
-811 851 0
-812 851 0
-851 798 799 800 804 805 806 810 811 812 0
-795 852 0
-796 852 0
-797 852 0
-798 852 0
-799 852 0
-800 852 0
-801 852 0
-802 852 0
-803 852 0
-804 852 0
-805 852 0
-806 852 0
-807 852 0
-808 852 0
-809 852 0
-810 852 0
-811 852 0
-812 852 0
-813 852 0
-814 852 0
-815 852 0
-816 852 0
-817 852 0
-818 852 0
-819 852 0
-820 852 0
-821 852 0
-822 852 0
-823 852 0
-824 852 0
-825 852 0
-826 852 0
-827 852 0
-828 852 0
-829 852 0
-830 852 0
-831 852 0
-833 852 0
-834 852 0
-835 852 0
-852 795 796 797 798 799 800 801 802 803 804 805 806 807 808 809 810 811 812 813 814 815 816 817 818 819 820 821 822 823 824 825 826 827 828 829 830 831 833 834 835 0
-795 853 0
-796 853 0
-797 853 0
-798 853 0
-799 853 0
-800 853 0
-801 853 0
-802 853 0
-803 853 0
-804 853 0
-805 853 0
-806 853 0
-807 853 0
-808 853 0
-809 853 0
-810 853 0
-811 853 0
-812 853 0
-813 853 0
-814 853 0
-815 853 0
-816 853 0
-817 853 0
-818 853 0
-819 853 0
-820 853 0
-821 853 0
-822 853 0
-823 853 0
-824 853 0
-825 853 0
-826 853 0
-827 853 0
-828 853 0
-829 853 0
-830 853 0
-831 853 0
-832 853 0
-834 853 0
-835 853 0
-853 795 796 797 798 799 800 801 802 803 804 805 806 807 808 809 810 811 812 813 814 815 816 817 818 819 820 821 822 823 824 825 826 827 828 829 830 831 832 834 835 0
-795 854 0
-796 854 0
-797 854 0
-798 854 0
-799 854 0
-800 854 0
-801 854 0
-802 854 0
-803 854 0
-804 854 0
-805 854 0
-806 854 0
-807 854 0
-808 854 0
-809 854 0
-810 854 0
-811 854 0
-812 854 0
-813 854 0
-814 854 0
-815 854 0
-816 854 0
-817 854 0
-818 854 0
-819 854 0
-820 854 0
-821 854 0
-822 854 0
-823 854 0
-824 854 0
-825 854 0
-826 854 0
-827 854 0
-828 854 0
-829 854 0
-830 854 0
-832 854 0
-833 854 0
-834 854 0
-835 854 0
-854 795 796 797 798 799 800 801 802 803 804 805 806 807 808 809 810 811 812 813 814 815 816 817 818 819 820 821 822 823 824 825 826 827 828 829 830 832 833 834 835 0
-855 -856 0
-855 -857 0
-856 -857 0
855 856 857 0
-858 -859 0
-858 -860 0
-858 -861 0
-858 -862 0
-858 -863 0
-858 -864 0
-859 -860 0
-859 -861 0
-859 -862 0
-859 -863 0
-859 -864 0
-860 -861 0
-860 -862 0
-860 -863 0
-860 -864 0
-861 -862 0
-861 -863 0
-861 -864 0
-862 -863 0
-862 -864 0
-863 -864 0
858 859 860 861 862 863 864 0
-865 -866 0
-865 -867 0
-865 -868 0
-865 -869 0
-865 -870 0
-866 -867 0
-866 -868 0
-866 -869 0
-866 -870 0
-867 -868 0
-867 -869 0
-867 -870 0
-868 -869 0
-868 -870 0
-869 -870 0
865 866 867 868 869 870 0
-871 -872 0
-871 -873 0
-871 -874 0
-871 -875 0
-871 -876 0
-872 -873 0
-872 -874 0
-872 -875 0
-872 -876 0
-873 -874 0
-873 -875 0
-873 -876 0
-874 -875 0
-874 -876 0
-875 -876 0
871 872 873 874 875 876 0
-877 -878 0
877 878 0
-879 -880 0
-879 -881 0
-879 -882 0
-879 -883 0
-879 -884 0
-880 -881 0
-880 -882 0
-880 -883 0
-880 -884 0
-881 -882 0
-881 -883 0
-881 -884 0
-882 -883 0
-882 -884 0
-883 -884 0
879 880 881 882 883 884 0
-885 -886 0
885 886 0
-887 -888 0
887 888 0
-889 -890 0
889 890 0
-891 -892 0
891 892 0
-836 747 0
-836 855 0
-834 -749 0
-834 -747 -855 0
-834 -748 -856 0
-838 748 0
-838 856 0
-835 -747 0
-835 -748 0
-835 -857 0
-839 749 0
-839 857 0
893 834 835 0
-893 -747 855 0
893 -747 -855 0
-893 -748 856 0
893 -748 -856 0
-893 -749 857 0
893 -749 -857 0
-835 -751 0
-835 -756 0
-835 -858 0
-835 -860 0
-750 -860 0
-750 -861 0
-750 -862 0
-750 -863 0
-750 -864 0
-835 -750 859 0
-752 -858 0
-752 -859 0
-752 -862 0
-752 -863 0
-752 -864 0
-835 -752 861 0
-753 -858 0
-753 -859 0
-753 -860 0
-753 -863 0
-753 -864 0
-835 -753 862 0
-754 -858 0
-754 -859 0
-754 -860 0
-754 -861 0
-754 -864 0
-835 -754 863 0
-755 -858 0
-755 -859 0
-755 -860 0
-755 -861 0
-755 -862 0
-835 -755 864 0
-841 751 752 753 754 755 756 0
-841 859 860 861 862 863 864 0
-834 -750 0
-834 -756 0
-834 -858 0
-834 -859 0
-751 -858 0
-751 -861 0
-751 -862 0
-751 -863 0
-751 -864 0
-834 -751 860 0
-752 -858 0
-752 -859 0
-752 -862 0
-752 -863 0
-752 -864 0
-834 -752 861 0
-753 -858 0
-753 -859 0
-753 -860 0
-753 -863 0
-753 -864 0
-834 -753 862 0
-754 -858 0
-754 -859 0
-754 -860 0
-754 -861 0
-754 -864 0
-834 -754 863 0
-755 -858 0
-755 -859 0
-755 -860 0
-755 -861 0
-755 -862 0
-834 -755 864 0
-832 752 753 0
-832 860 861 0
894 835 834 0
-894 -750 858 0
894 -750 -858 0
-894 -751 859 0
894 -751 -859 0
-894 -752 860 0
894 -752 -860 0
-894 -753 861 0
894 -753 -861 0
-894 -754 862 0
894 -754 -862 0
-894 -755 863 0
894 -755 -863 0
-894 -756 864 0
894 -756 -864 0
-795 -758 0
-795 -759 0
-795 -760 0
-795 -761 0
-795 -762 0
-795 -865 0
-795 -866 0
-795 -867 0
-795 -869 0
-795 -870 0
-757 -866 0
-757 -867 0
-757 -870 0
-795 -757 868 0
-798 -758 0
-798 -759 0
-798 -760 0
-798 -761 0
-798 -762 0
-798 -865 0
-798 -866 0
-798 -867 0
-798 -868 0
-798 -870 0
-757 -866 0
-757 -867 0
-757 -870 0
-798 -757 869 0
-796 -757 0
-796 -759 0
-796 -760 0
-796 -761 0
-796 -762 0
-796 -865 0
-796 -866 0
-796 -867 0
-796 -869 0
-796 -870 0
-758 -865 0
-758 -867 0
-758 -870 0
-796 -758 868 0
-799 -757 0
-799 -759 0
-799 -760 0
-799 -761 0
-799 -762 0
-799 -865 0
-799 -866 0
-799 -867 0
-799 -868 0
-799 -870 0
-758 -865 0
-758 -867 0
-758 -870 0
-799 -758 869 0
-797 -757 0
-797 -758 0
-797 -760 0
-797 -761 0
-797 -762 0
-797 -865 0
-797 -866 0
-797 -867 0
-797 -869 0
-797 -870 0
-759 -865 0
-759 -866 0
-797 -759 868 0
-800 -757 0
-800 -758 0
-800 -760 0
-800 -761 0
-800 -762 0
-800 -865 0
-800 -866 0
-800 -867 0
-800 -868 0
-800 -870 0
-759 -865 0
-759 -866 0
-800 -759 869 0
-832 -757 0
-832 -758 0
-832 -760 0
-832 -761 0
-832 -762 0
-832 -865 0
-832 -866 0
-832 -867 0
-832 -868 0
-832 -869 0
-759 -865 0
-759 -866 0
-832 -759 870 0
-813 -757 0
-813 -758 0
-813 -759 0
-813 -761 0
-813 -762 0
-813 -866 0
-813 -867 0
-813 -868 0
-813 -869 0
-813 -870 0
-760 -869 0
-760 -870 0
-813 -760 865 0
-814 -757 0
-814 -758 0
-814 -759 0
-814 -761 0
-814 -762 0
-814 -865 0
-814 -867 0
-814 -868 0
-814 -869 0
-814 -870 0
-760 -869 0
-760 -870 0
-814 -760 866 0
-815 -757 0
-815 -758 0
-815 -759 0
-815 -761 0
-815 -762 0
-815 -865 0
-815 -866 0
-815 -868 0
-815 -869 0
-815 -870 0
-760 -869 0
-760 -870 0
-815 -760 867 0
-816 -757 0
-816 -758 0
-816 -759 0
-816 -760 0
-816 -762 0
-816 -866 0
-816 -867 0
-816 -868 0
-816 -869 0
-816 -870 0
-761 -868 0
-761 -870 0
-816 -761 865 0
-817 -757 0
-817 -758 0
-817 -759 0
-817 -760 0
-817 -762 0
-817 -865 0
-817 -867 0
-817 -868 0
-817 -869 0
-817 -870 0
-761 -868 0
-761 -870 0
-817 -761 866 0
-818 -757 0
-818 -758 0
-818 -759 0
-818 -760 0
-818 -762 0
-818 -865 0
-818 -866 0
-818 -868 0
-818 -869 0
-818 -870 0
-761 -868 0
-761 -870 0
-818 -761 867 0
895 795 798 796 799 797 800 832 813 814 815 816 817 818 0
-895 -757 865 0
895 -757 -865 0
-895 -758 866 0
895 -758 -866 0
-895 -759 867 0
895 -759 -867 0
-895 -760 868 0
895 -760 -868 0
-895 -761 869 0
895 -761 -869 0
-895 -762 870 0
895 -762 -870 0
-801 -764 0
-801 -765 0
-801 -766 0
-801 -767 0
-801 -768 0
-801 -871 0
-801 -872 0
-801 -873 0
-801 -875 0
-801 -876 0
-763 -872 0
-763 -873 0
-801 -763 874 0
-804 -764 0
-804 -765 0
-804 -766 0
-804 -767 0
-804 -768 0
-804 -871 0
-804 -872 0
-804 -873 0
-804 -874 0
-804 -876 0
-763 -872 0
-763 -873 0
-804 -763 875 0
-833 -764 0
-833 -765 0
-833 -766 0
-833 -767 0
-833 -768 0
-833 -871 0
-833 -872 0
-833 -873 0
-833 -874 0
-833 -875 0
-763 -872 0
-763 -873 0
-833 -763 876 0
-802 -763 0
-802 -765 0
-802 -766 0
-802 -767 0
-802 -768 0
-802 -871 0
-802 -872 0
-802 -873 0
-802 -875 0
-802 -876 0
-764 -871 0
-764 -873 0
-764 -876 0
-802 -764 874 0
-805 -763 0
-805 -765 0
-805 -766 0
-805 -767 0
-805 -768 0
-805 -871 0
-805 -872 0
-805 -873 0
-805 -874 0
-805 -876 0
-764 -871 0
-764 -873 0
-764 -876 0
-805 -764 875 0
-803 -763 0
-803 -764 0
-803 -766 0
-803 -767 0
-803 -768 0
-803 -871 0
-803 -872 0
-803 -873 0
-803 -875 0
-803 -876 0
-765 -871 0
-765 -872 0
-765 -876 0
-803 -765 874 0
-806 -763 0
-806 -764 0
-806 -766 0
-806 -767 0
-806 -768 0
-806 -871 0
-806 -872 0
-806 -873 0
-806 -874 0
-806 -876 0
-765 -871 0
-765 -872 0
-765 -876 0
-806 -765 875 0
-819 -763 0
-819 -764 0
-819 -765 0
-819 -767 0
-819 -768 0
-819 -872 0
-819 -873 0
-819 -874 0
-819 -875 0
-819 -876 0
-766 -875 0
-766 -876 0
-819 -766 871 0
-820 -763 0
-820 -764 0
-820 -765 0
-820 -767 0
-820 -768 0
-820 -871 0
-820 -873 0
-820 -874 0
-820 -875 0
-820 -876 0
-766 -875 0
-766 -876 0
-820 -766 872 0
-821 -763 0
-821 -764 0
-821 -765 0
-821 -767 0
-821 -768 0
-821 -871 0
-821 -872 0
-821 -874 0
-821 -875 0
-821 -876 0
-766 -875 0
-766 -876 0
-821 -766 873 0
-822 -763 0
-822 -764 0
-822 -765 0
-822 -766 0
-822 -768 0
-822 -872 0
-822 -873 0
-822 -874 0
-822 -875 0
-822 -876 0
-767 -874 0
-767 -876 0
-822 -767 871 0
-823 -763 0
-823 -764 0
-823 -765 0
-823 -766 0
-823 -768 0
-823 -871 0
-823 -873 0
-823 -874 0
-823 -875 0
-823 -876 0
-767 -874 0
-767 -876 0
-823 -767 872 0
-824 -763 0
-824 -764 0
-824 -765 0
-824 -766 0
-824 -768 0
-824 -871 0
-824 -872 0
-824 -874 0
-824 -875 0
-824 -876 0
-767 -874 0
-767 -876 0
-824 -767 873 0
896 801 804 833 802 805 803 806 819 820 821 822 823 824 0
-896 -763 871 0
896 -763 -871 0
-896 -764 872 0
896 -764 -872 0
-896 -765 873 0
896 -765 -873 0
-896 -766 874 0
896 -766 -874 0
-896 -767 875 0
896 -767 -875 0
-896 -768 876 0
896 -768 -876 0
-844 769 0
-844 877 0
-845 -878 0
-845 -769 877 0
-845 -770 877 0
-847 -770 0
-847 -877 0
-847 -769 878 0
897 845 847 0
-897 -769 877 0
897 -769 -877 0
-897 -770 878 0
897 -770 -878 0
-807 -772 0
-807 -773 0
-807 -774 0
-807 -775 0
-807 -776 0
-807 -879 0
-807 -880 0
-807 -881 0
-807 -883 0
-807 -884 0
-771 -880 0
-771 -881 0
-807 -771 882 0
-810 -772 0
-810 -773 0
-810 -774 0
-810 -775 0
-810 -776 0
-810 -879 0
-810 -880 0
-810 -881 0
-810 -882 0
-810 -884 0
-771 -880 0
-771 -881 0
-810 -771 883 0
-831 -772 0
-831 -773 0
-831 -774 0
-831 -775 0
-831 -776 0
-831 -879 0
-831 -880 0
-831 -881 0
-831 -882 0
-831 -883 0
-771 -880 0
-771 -881 0
-831 -771 884 0
-808 -771 0
-808 -773 0
-808 -774 0
-808 -775 0
-808 -776 0
-808 -879 0
-808 -880 0
-808 -881 0
-808 -883 0
-808 -884 0
-772 -879 0
-772 -881 0
-772 -884 0
-808 -772 882 0
-811 -771 0
-811 -773 0
-811 -774 0
-811 -775 0
-811 -776 0
-811 -879 0
-811 -880 0
-811 -881 0
-811 -882 0
-811 -884 0
-772 -879 0
-772 -881 0
-772 -884 0
-811 -772 883 0
-809 -771 0
-809 -772 0
-809 -774 0
-809 -775 0
-809 -776 0
-809 -879 0
-809 -880 0
-809 -881 0
-809 -883 0
-809 -884 0
-773 -879 0
-773 -880 0
-773 -884 0
-809 -773 882 0
-812 -771 0
-812 -772 0
-812 -774 0
-812 -775 0
-812 -776 0
-812 -879 0
-812 -880 0
-812 -881 0
-812 -882 0
-812 -884 0
-773 -879 0
-773 -880 0
-773 -884 0
-812 -773 883 0
-825 -771 0
-825 -772 0
-825 -773 0
-825 -775 0
-825 -776 0
-825 -880 0
-825 -881 0
-825 -882 0
-825 -883 0
-825 -884 0
-774 -883 0
-774 -884 0
-825 -774 879 0
-826 -771 0
-826 -772 0
-826 -773 0
-826 -775 0
-826 -776 0
-826 -879 0
-826 -881 0
-826 -882 0
-826 -883 0
-826 -884 0
-774 -883 0
-774 -884 0
-826 -774 880 0
-827 -771 0
-827 -772 0
-827 -773 0
-827 -775 0
-827 -776 0
-827 -879 0
-827 -880 0
-827 -882 0
-827 -883 0
-827 -884 0
-774 -883 0
-774 -884 0
-827 -774 881 0
-828 -771 0
-828 -772 0
-828 -773 0
-828 -774 0
-828 -776 0
-828 -880 0
-828 -881 0
-828 -882 0
-828 -883 0
-828 -884 0
-775 -882 0
-775 -884 0
-828 -775 879 0
-829 -771 0
-829 -772 0
-829 -773 0
-829 -774 0
-829 -776 0
-829 -879 0
-829 -881 0
-829 -882 0
-829 -883 0
-829 -884 0
-775 -882 0
-775 -884 0
-829 -775 880 0
-830 -771 0
-830 -772 0
-830 -773 0
-830 -774 0
-830 -776 0
-830 -879 0
-830 -880 0
-830 -882 0
-830 -883 0
-830 -884 0
-775 -882 0
-775 -884 0
-830 -775 881 0
898 807 810 831 808 811 809 812 825 826 827 828 829 830 0
-898 -771 879 0
898 -771 -879 0
-898 -772 880 0
898 -772 -880 0
-898 -773 881 0
898 -773 -881 0
-898 -774 882 0
898 -774 -882 0
-898 -775 883 0
898 -775 -883 0
-898 -776 884 0
898 -776 -884 0
-849 -886 0
-849 -777 885 0
-849 -778 885 0
-851 -778 0
-851 -885 0
-851 -777 886 0
899 849 851 0
-899 -777 885 0
899 -777 -885 0
-899 -778 886 0
899 -778 -886 0
-832 -888 0
-779 -888 0
-832 -779 887 0
-832 -780 887 0
900 832 0
-900 -779 887 0
900 -779 -887 0
-900 -780 888 0
900 -780 -888 0
-833 -890 0
-781 -890 0
-833 -781 889 0
-833 -782 889 0
901 833 0
-901 -781 889 0
901 -781 -889 0
-901 -782 890 0
901 -782 -890 0
-831 -892 0
-783 -892 0
-831 -783 891 0
-831 -784 891 0
902 831 0
-902 -783 891 0
902 -783 -891 0
-902 -784 892 0
902 -784 -892 0
-942 -943 0
-942 -943 0
-903 -904 0
-903 -905 0
-903 -906 0
-903 -907 0
-903 -908 0
-903 -921 0
-903 -922 0
-903 -923 0
-903 -924 0
-903 -925 0
-903 -926 0
-903 -940 0
-904 -905 0
-904 -906 0
-904 -907 0
-904 -908 0
-904 -921 0
-904 -922 0
-904 -923 0
-904 -924 0
-904 -925 0
-904 -926 0
-904 -940 0
-905 -906 0
-905 -907 0
-905 -908 0
-905 -921 0
-905 -922 0
-905 -923 0
-905 -924 0
-905 -925 0
-905 -926 0
-905 -940 0
-906 -907 0
-906 -908 0
-906 -921 0
-906 -922 0
-906 -923 0
-906 -924 0
-906 -925 0
-906 -926 0
-906 -940 0
-907 -908 0
-907 -921 0
-907 -922 0
-907 -923 0
-907 -924 0
-907 -925 0
-907 -926 0
-907 -940 0
-908 -921 0
-908 -922 0
-908 -923 0
-908 -924 0
-908 -925 0
-908 -926 0
-908 -940 0
-921 -922 0
-921 -923 0
-921 -924 0
-921 -925 0
-921 -926 0
-921 -940 0
-922 -923 0
-922 -924 0
-922 -925 0
-922 -926 0
-922 -940 0
-923 -924 0
-923 -925 0
-923 -926 0
-923 -940 0
-924 -925 0
-924 -926 0
-924 -940 0
-925 -926 0
-925 -940 0
-926 -940 0
-909 -910 0
-909 -911 0
-909 -912 0
-909 -913 0
-909 -914 0
-909 -927 0
-909 -928 0
-909 -929 0
-909 -930 0
-909 -931 0
-909 -932 0
-909 -941 0
-910 -911 0
-910 -912 0
-910 -913 0
-910 -914 0
-910 -927 0
-910 -928 0
-910 -929 0
-910 -930 0
-910 -931 0
-910 -932 0
-910 -941 0
-911 -912 0
-911 -913 0
-911 -914 0
-911 -927 0
-911 -928 0
-911 -929 0
-911 -930 0
-911 -931 0
-911 -932 0
-911 -941 0
-912 -913 0
-912 -914 0
-912 -927 0
-912 -928 0
-912 -929 0
-912 -930 0
-912 -931 0
-912 -932 0
-912 -941 0
-913 -914 0
-913 -927 0
-913 -928 0
-913 -929 0
-913 -930 0
-913 -931 0
-913 -932 0
-913 -941 0
-914 -927 0
-914 -928 0
-914 -929 0
-914 -930 0
-914 -931 0
-914 -932 0
-914 -941 0
-927 -928 0
-927 -929 0
-927 -930 0
-927 -931 0
-927 -932 0
-927 -941 0
-928 -929 0
-928 -930 0
-928 -931 0
-928 -932 0
-928 -941 0
-929 -930 0
-929 -931 0
-929 -932 0
-929 -941 0
-930 -931 0
-930 -932 0
-930 -941 0
-931 -932 0
-931 -941 0
-932 -941 0
-903 -904 0
-903 -905 0
-903 -909 0
-903 -910 0
-903 -911 0
-903 -915 0
-903 -916 0
-903 -917 0
-903 -921 0
-903 -922 0
-903 -923 0
-903 -927 0
-903 -928 0
-903 -929 0
-903 -933 0
-903 -934 0
-903 -935 0
-904 -905 0
-904 -909 0
-904 -910 0
-904 -911 0
-904 -915 0
-904 -916 0
-904 -917 0
-904 -921 0
-904 -922 0
-904 -923 0
-904 -927 0
-904 -928 0
-904 -929 0
-904 -933 0
-904 -934 0
-904 -935 0
-905 -909 0
-905 -910 0
-905 -911 0
-905 -915 0
-905 -916 0
-905 -917 0
-905 -921 0
-905 -922 0
-905 -923 0
-905 -927 0
-905 -928 0
-905 -929 0
-905 -933 0
-905 -934 0
-905 -935 0
-909 -910 0
-909 -911 0
-909 -915 0
-909 -916 0
-909 -917 0
-909 -921 0
-909 -922 0
-909 -923 0
-909 -927 0
-909 -928 0
-909 -929 0
-909 -933 0
-909 -934 0
-909 -935 0
-910 -911 0
-910 -915 0
-910 -916 0
-910 -917 0
-910 -921 0
-910 -922 0
-910 -923 0
-910 -927 0
-910 -928 0
-910 -929 0
-910 -933 0
-910 -934 0
-910 -935 0
-911 -915 0
-911 -916 0
-911 -917 0
-911 -921 0
-911 -922 0
-911 -923 0
-911 -927 0
-911 -928 0
-911 -929 0
-911 -933 0
-911 -934 0
-911 -935 0
-915 -916 0
-915 -917 0
-915 -921 0
-915 -922 0
-915 -923 0
-915 -927 0
-915 -928 0
-915 -929 0
-915 -933 0
-915 -934 0
-915 -935 0
-916 -917 0
-916 -921 0
-916 -922 0
-916 -923 0
-916 -927 0
-916 -928 0
-916 -929 0
-916 -933 0
-916 -934 0
-916 -935 0
-917 -921 0
-917 -922 0
-917 -923 0
-917 -927 0
-917 -928 0
-917 -929 0
-917 -933 0
-917 -934 0
-917 -935 0
-921 -922 0
-921 -923 0
-921 -927 0
-921 -928 0
-921 -929 0
-921 -933 0
-921 -934 0
-921 -935 0
-922 -923 0
-922 -927 0
-922 -928 0
-922 -929 0
-922 -933 0
-922 -934 0
-922 -935 0
-923 -927 0
-923 -928 0
-923 -929 0
-923 -933 0
-923 -934 0
-923 -935 0
-927 -928 0
-927 -929 0
-927 -933 0
-927 -934 0
-927 -935 0
-928 -929 0
-928 -933 0
-928 -934 0
-928 -935 0
-929 -933 0
-929 -934 0
-929 -935 0
-933 -934 0
-933 -935 0
-934 -935 0
-915 -916 0
-915 -917 0
-915 -918 0
-915 -919 0
-915 -920 0
-915 -933 0
-915 -934 0
-915 -935 0
-915 -936 0
-915 -937 0
-915 -938 0
-915 -939 0
-916 -917 0
-916 -918 0
-916 -919 0
-916 -920 0
-916 -933 0
-916 -934 0
-916 -935 0
-916 -936 0
-916 -937 0
-916 -938 0
-916 -939 0
-917 -918 0
-917 -919 0
-917 -920 0
-917 -933 0
-917 -934 0
-917 -935 0
-917 -936 0
-917 -937 0
-917 -938 0
-917 -939 0
-918 -919 0
-918 -920 0
-918 -933 0
-918 -934 0
-918 -935 0
-918 -936 0
-918 -937 0
-918 -938 0
-918 -939 0
-919 -920 0
-919 -933 0
-919 -934 0
-919 -935 0
-919 -936 0
-919 -937 0
-919 -938 0
-919 -939 0
-920 -933 0
-920 -934 0
-920 -935 0
-920 -936 0
-920 -937 0
-920 -938 0
-920 -939 0
-933 -934 0
-933 -935 0
-933 -936 0
-933 -937 0
-933 -938 0
-933 -939 0
-934 -935 0
-934 -936 0
-934 -937 0
-934 -938 0
-934 -939 0
-935 -936 0
-935 -937 0
-935 -938 0
-935 -939 0
-936 -937 0
-936 -938 0
-936 -939 0
-937 -938 0
-937 -939 0
-938 -939 0
-906 -907 0
-906 -908 0
-906 -912 0
-906 -913 0
-906 -914 0
-906 -918 0
-906 -919 0
-906 -920 0
-906 -924 0
-906 -925 0
-906 -926 0
-906 -930 0
-906 -931 0
-906 -932 0
-906 -936 0
-906 -937 0
-906 -938 0
-907 -908 0
-907 -912 0
-907 -913 0
-907 -914 0
-907 -918 0
-907 -919 0
-907 -920 0
-907 -924 0
-907 -925 0
-907 -926 0
-907 -930 0
-907 -931 0
-907 -932 0
-907 -936 0
-907 -937 0
-907 -938 0
-908 -912 0
-908 -913 0
-908 -914 0
-908 -918 0
-908 -919 0
-908 -920 0
-908 -924 0
-908 -925 0
-908 -926 0
-908 -930 0
-908 -931 0
-908 -932 0
-908 -936 0
-908 -937 0
-908 -938 0
-912 -913 0
-912 -914 0
-912 -918 0
-912 -919 0
-912 -920 0
-912 -924 0
-912 -925 0
-912 -926 0
-912 -930 0
-912 -931 0
-912 -932 0
-912 -936 0
-912 -937 0
-912 -938 0
-913 -914 0
-913 -918 0
-913 -919 0
-913 -920 0
-913 -924 0
-913 -925 0
-913 -926 0
-913 -930 0
-913 -931 0
-913 -932 0
-913 -936 0
-913 -937 0
-913 -938 0
-914 -918 0
-914 -919 0
-914 -920 0
-914 -924 0
-914 -925 0
-914 -926 0
-914 -930 0
-914 -931 0
-914 -932 0
-914 -936 0
-914 -937 0
-914 -938 0
-918 -919 0
-918 -920 0
-918 -924 0
-918 -925 0
-918 -926 0
-918 -930 0
-918 -931 0
-918 -932 0
-918 -936 0
-918 -937 0
-918 -938 0
-919 -920 0
-919 -924 0
-919 -925 0
-919 -926 0
-919 -930 0
-919 -931 0
-919 -932 0
-919 -936 0
-919 -937 0
-919 -938 0
-920 -924 0
-920 -925 0
-920 -926 0
-920 -930 0
-920 -931 0
-920 -932 0
-920 -936 0
-920 -937 0
-920 -938 0
-924 -925 0
-924 -926 0
-924 -930 0
-924 -931 0
-924 -932 0
-924 -936 0
-924 -937 0
-924 -938 0
-925 -926 0
-925 -930 0
-925 -931 0
-925 -932 0
-925 -936 0
-925 -937 0
-925 -938 0
-926 -930 0
-926 -931 0
-926 -932 0
-926 -936 0
-926 -937 0
-926 -938 0
-930 -931 0
-930 -932 0
-930 -936 0
-930 -937 0
-930 -938 0
-931 -932 0
-931 -936 0
-931 -937 0
-931 -938 0
-932 -936 0
-932 -937 0
-932 -938 0
-936 -937 0
-936 -938 0
-937 -938 0
903 904 905 906 907 908 909 910 911 912 913 914 915 916 917 918 919 920 921 922 923 924 925 926 927 928 929 930 931 932 933 934 935 936 937 938 939 940 941 942 943 0
-903 944 0
-906 944 0
-909 944 0
-912 944 0
-915 944 0
-918 944 0
-921 944 0
-924 944 0
-927 944 0
-930 944 0
-933 944 0
-936 944 0
-944 903 906 909 912 915 918 921 924 927 930 933 936 0
-939 945 0
-940 945 0
-941 945 0
-945 939 940 941 0
-904 946 0
-907 946 0
-910 946 0
-913 946 0
-916 946 0
-919 946 0
-922 946 0
-925 946 0
-928 946 0
-931 946 0
-934 946 0
-937 946 0
-946 904 907 910 913 916 919 922 925 928 931 934 937 0
-905 947 0
-908 947 0
-911 947 0
-914 947 0
-917 947 0
-920 947 0
-923 947 0
-926 947 0
-929 947 0
-932 947 0
-935 947 0
-938 947 0
-947 905 908 911 914 917 920 923 926 929 932 935 938 0
-903 948 0
-904 948 0
-905 948 0
-906 948 0
-907 948 0
-908 948 0
-909 948 0
-910 948 0
-911 948 0
-912 948 0
-913 948 0
-914 948 0
-915 948 0
-916 948 0
-917 948 0
-918 948 0
-919 948 0
-920 948 0
-921 948 0
-922 948 0
-923 948 0
-924 948 0
-925 948 0
-926 948 0
-927 948 0
-928 948 0
-929 948 0
-930 948 0
-931 948 0
-932 948 0
-933 948 0
-934 948 0
-935 948 0
-936 948 0
-937 948 0
-938 948 0
-948 903 904 905 906 907 908 909 910 911 912 913 914 915 916 917 918 919 920 921 922 923 924 925 926 927 928 929 930 931 932 933 934 935 936 937 938 0
-939 949 0
-941 949 0
-949 939 941 0
-909 950 0
-910 950 0
-911 950 0
-912 950 0
-913 950 0
-914 950 0
-915 950 0
-916 950 0
-917 950 0
-918 950 0
-919 950 0
-920 950 0
-927 950 0
-928 950 0
-929 950 0
-930 950 0
-931 950 0
-932 950 0
-933 950 0
-934 950 0
-935 950 0
-936 950 0
-937 950 0
-938 950 0
-939 950 0
-941 950 0
-942 950 0
-943 950 0
-950 909 910 911 912 913 914 915 916 917 918 919 920 927 928 929 930 931 932 933 934 935 936 937 938 939 941 942 943 0
-903 951 0
-904 951 0
-905 951 0
-906 951 0
-907 951 0
-908 951 0
-915 951 0
-916 951 0
-917 951 0
-918 951 0
-919 951 0
-920 951 0
-921 951 0
-922 951 0
-923 951 0
-924 951 0
-925 951 0
-926 951 0
-933 951 0
-934 951 0
-935 951 0
-936 951 0
-937 951 0
-938 951 0
-939 951 0
-940 951 0
-942 951 0
-943 951 0
-951 903 904 905 906 907 908 915 916 917 918 919 920 921 922 923 924 925 926 933 934 935 936 937 938 939 940 942 943 0
-906 952 0
-907 952 0
-908 952 0
-912 952 0
-913 952 0
-914 952 0
-918 952 0
-919 952 0
-920 952 0
-924 952 0
-925 952 0
-926 952 0
-930 952 0
-931 952 0
-932 952 0
-936 952 0
-937 952 0
-938 952 0
-952 906 907 908 912 913 914 918 919 920 924 925 926 930 931 932 936 937 938 0
-921 953 0
-922 953 0
-923 953 0
-927 953 0
-928 953 0
-929 953 0
-933 953 0
-934 953 0
-935 953 0
-953 921 922 923 927 928 929 933 934 935 0
-939 954 0
-940 954 0
-941 954 0
-942 954 0
-943 954 0
-954 939 940 941 942 943 0
-903 955 0
-904 955 0
-905 955 0
-909 955 0
-910 955 0
-911 955 0
-915 955 0
-916 955 0
-917 955 0
-955 903 904 905 909 910 911 915 916 917 0
-903 956 0
-904 956 0
-905 956 0
-906 956 0
-907 956 0
-908 956 0
-909 956 0
-910 956 0
-911 956 0
-912 956 0
-913 956 0
-914 956 0
-921 956 0
-922 956 0
-923 956 0
-924 956 0
-925 956 0
-926 956 0
-927 956 0
-928 956 0
-929 956 0
-930 956 0
-931 956 0
-932 956 0
-940 956 0
-941 956 0
-942 956 0
-943 956 0
-956 903 904 905 906 907 908 909 910 911 912 913 914 921 922 923 924 925 926 927 928 929 930 931 932 940 941 942 943 0
-924 957 0
-925 957 0
-926 957 0
-930 957 0
-931 957 0
-932 957 0
-936 957 0
-937 957 0
-938 957 0
-957 924 925 926 930 931 932 936 937 938 0
-903 958 0
-904 958 0
-905 958 0
-909 958 0
-910 958 0
-911 958 0
-915 958 0
-916 958 0
-917 958 0
-921 958 0
-922 958 0
-923 958 0
-927 958 0
-928 958 0
-929 958 0
-933 958 0
-934 958 0
-935 958 0
-939 958 0
-940 958 0
-941 958 0
-942 958 0
-943 958 0
-958 903 904 905 909 910 911 915 916 917 921 922 923 927 928 929 933 934 935 939 940 941 942 943 0
-906 959 0
-907 959 0
-908 959 0
-912 959 0
-913 959 0
-914 959 0
-918 959 0
-919 959 0
-920 959 0
-959 906 907 908 912 913 914 918 919 920 0
-903 960 0
-904 960 0
-905 960 0
-906 960 0
-907 960 0
-908 960 0
-909 960 0
-910 960 0
-911 960 0
-912 960 0
-913 960 0
-914 960 0
-915 960 0
-916 960 0
-917 960 0
-918 960 0
-919 960 0
-920 960 0
-921 960 0
-922 960 0
-923 960 0
-924 960 0
-925 960 0
-926 960 0
-927 960 0
-928 960 0
-929 960 0
-930 960 0
-931 960 0
-932 960 0
-933 960 0
-934 960 0
-935 960 0
-936 960 0
-937 960 0
-938 960 0
-939 960 0
-941 960 0
-942 960 0
-943 960 0
-960 903 904 905 906 907 908 909 910 911 912 913 914 915 916 917 918 919 920 921 922 923 924 925 926 927 928 929 930 931 932 933 934 935 936 937 938 939 941 942 943 0
-903 961 0
-904 961 0
-905 961 0
-906 961 0
-907 961 0
-908 961 0
-909 961 0
-910 961 0
-911 961 0
-912 961 0
-913 961 0
-914 961 0
-915 961 0
-916 961 0
-917 961 0
-918 961 0
-919 961 0
-920 961 0
-921 961 0
-922 961 0
-923 961 0
-924 961 0
-925 961 0
-926 961 0
-927 961 0
-928 961 0
-929 961 0
-930 961 0
-931 961 0
-932 961 0
-933 961 0
-934 961 0
-935 961 0
-936 961 0
-937 961 0
-938 961 0
-939 961 0
-940 961 0
-942 961 0
-943 961 0
-961 903 904 905 906 907 908 909 910 911 912 913 914 915 916 917 918 919 920 921 922 923 924 925 926 927 928 929 930 931 932 933 934 935 936 937 938 939 940 942 943 0
-903 962 0
-904 962 0
-905 962 0
-906 962 0
-907 962 0
-908 962 0
-909 962 0
-910 962 0
-911 962 0
-912 962 0
-913 962 0
-914 962 0
-915 962 0
-916 962 0
-917 962 0
-918 962 0
-919 962 0
-920 962 0
-921 962 0
-922 962 0
-923 962 0
-924 962 0
-925 962 0
-926 962 0
-927 962 0
-928 962 0
-929 962 0
-930 962 0
-931 962 0
-932 962 0
-933 962 0
-934 962 0
-935 962 0
-936 962 0
-937 962 0
-938 962 0
-940 962 0
-941 962 0
-942 962 0
-943 962 0
-962 903 904 905 906 907 908 909 910 911 912 913 914 915 916 917 918 919 920 921 922 923 924 925 926 927 928 929 930 931 932 933 934 935 936 937 938 940 941 942 943 0
-963 -964 0
-963 -965 0
-964 -965 0
963 964 965 0
-966 -967 0
-966 -968 0
-966 -969 0
-966 -970 0
-966 -971 0
-966 -972 0
-967 -968 0
-967 -969 0
-967 -970 0
-967 -971 0
-967 -972 0
-968 -969 0
-968 -970 0
-968 -971 0
-968 -972 0
-969 -970 0
-969 -971 0
-969 -972 0
-970 -971 0
-970 -972 0
-971 -972 0
966 967 968 969 970 971 972 0
-973 -974 0
-973 -975 0
-973 -976 0
-973 -977 0
-973 -978 0
-974 -975 0
-974 -976 0
-974 -977 0
-974 -978 0
-975 -976 0
-975 -977 0
-975 -978 0
-976 -977 0
-976 -978 0
-977 -978 0
973 974 975 976 977 978 0
-979 -980 0
-979 -981 0
-979 -982 0
-979 -983 0
-979 -984 0
-980 -981 0
-980 -982 0
-980 -983 0
-980 -984 0
-981 -982 0
-981 -983 0
-981 -984 0
-982 -983 0
-982 -984 0
-983 -984 0
979 980 981 982 983 984 0
-985 -986 0
985 986 0
-987 -988 0
-987 -989 0
-987 -990 0
-987 -991 0
-987 -992 0
-988 -989 0
-988 -990 0
-988 -991 0
-988 -992 0
-989 -990 0
-989 -991 0
-989 -992 0
-990 -991 0
-990 -992 0
-991 -992 0
987 988 989 990 991 992 0
-993 -994 0
993 994 0
-995 -996 0
995 996 0
-997 -998 0
997 998 0
-999 -1000 0
999 1000 0
-944 855 0
-944 963 0
-942 -857 0
-942 -855 -963 0
-942 -856 -964 0
-946 856 0
-946 964 0
-943 -855 0
-943 -856 0
-943 -965 0
-947 857 0
-947 965 0
1001 942 943 0
-1001 -855 963 0
1001 -855 -963 0
-1001 -856 964 0
1001 -856 -964 0
-1001 -857 965 0
1001 -857 -965 0
-943 -859 0
-943 -864 0
-943 -966 0
-943 -968 0
-858 -968 0
-858 -969 0
-858 -970 0
-858 -971 0
-858 -972 0
-943 -858 967 0
-860 -966 0
-860 -967 0
-860 -970 0
-860 -971 0
-860 -972 0
-943 -860 969 0
-861 -966 0
-861 -967 0
-861 -968 0
-861 -971 0
-861 -972 0
-943 -861 970 0
-862 -966 0
-862 -967 0
-862 -968 0
-862 -969 0
-862 -972 0
-943 -862 971 0
-863 -966 0
-863 -967 0
-863 -968 0
-863 -969 0
-863 -970 0
-943 -863 972 0
-949 859 860 861 862 863 864 0
-949 967 968 969 970 971 972 0
-942 -858 0
-942 -864 0
-942 -966 0
-942 -967 0
-859 -966 0
-859 -969 0
-859 -970 0
-859 -971 0
-859 -972 0
-942 -859 968 0
-860 -966 0
-860 -967 0
-860 -970 0
-860 -971 0
-860 -972 0
-942 -860 969 0
-861 -966 0
-861 -967 0
-861 -968 0
-861 -971 0
-861 -972 0
-942 -861 970 0
-862 -966 0
-862 -967 0
-862 -968 0
-862 -969 0
-862 -972 0
-942 -862 971 0
-863 -966 0
-863 -967 0
-863 -968 0
-863 -969 0
-863 -970 0
-942 -863 972 0
-940 860 861 0
-940 968 969 0
1002 943 942 0
-1002 -858 966 0
1002 -858 -966 0
-1002 -859 967 0
1002 -859 -967 0
-1002 -860 968 0
1002 -860 -968 0
-1002 -861 969 0
1002 -861 -969 0
-1002 -862 970 0
1002 -862 -970 0
-1002 -863 971 0
1002 -863 -971 0
-1002 -864 972 0
1002 -864 -972 0
-903 -866 0
-903 -867 0
-903 -868 0
-903 -869 0
-903 -870 0
-903 -973 0
-903 -974 0
-903 -975 0
-903 -977 0
-903 -978 0
-865 -974 0
-865 -975 0
-865 -978 0
-903 -865 976 0
-906 -866 0
-906 -867 0
-906 -868 0
-906 -869 0
-906 -870 0
-906 -973 0
-906 -974 0
-906 -975 0
-906 -976 0
-906 -978 0
-865 -974 0
-865 -975 0
-865 -978 0
-906 -865 977 0
-904 -865 0
-904 -867 0
-904 -868 0
-904 -869 0
-904 -870 0
-904 -973 0
-904 -974 0
-904 -975 0
-904 -977 0
-904 -978 0
-866 -973 0
-866 -975 0
-866 -978 0
-904 -866 976 0
-907 -865 0
-907 -867 0
-907 -868 0
-907 -869 0
-907 -870 0
-907 -973 0
-907 -974 0
-907 -975 0
-907 -976 0
-907 -978 0
-866 -973 0
-866 -975 0
-866 -978 0
-907 -866 977 0
-905 -865 0
-905 -866 0
-905 -868 0
-905 -869 0
-905 -870 0
-905 -973 0
-905 -974 0
-905 -975 0
-905 -977 0
-905 -978 0
-867 -973 0
-867 -974 0
-905 -867 976 0
-908 -865 0
-908 -866 0
-908 -868 0
-908 -869 0
-908 -870 0
-908 -973 0
-908 -974 0
-908 -975 0
-908 -976 0
-908 -978 0
-867 -973 0
-867 -974 0
-908 -867 977 0
-940 -865 0
-940 -866 0
-940 -868 0
-940 -869 0
-940 -870 0
-940 -973 0
-940 -974 0
-940 -975 0
-940 -976 0
-940 -977 0
-867 -973 0
-867 -974 0
-940 -867 978 0
-921 -865 0
-921 -866 0
-921 -867 0
-921 -869 0
-921 -870 0
-921 -974 0
-921 -975 0
-921 -976 0
-921 -977 0
-921 -978 0
-868 -977 0
-868 -978 0
-921 -868 973 0
-922 -865 0
-922 -866 0
-922 -867 0
-922 -869 0
-922 -870 0
-922 -973 0
-922 -975 0
-922 -976 0
-922 -977 0
-922 -978 0
-868 -977 0
-868 -978 0
-922 -868 974 0
-923 -865 0
-923 -866 0
-923 -867 0
-923 -869 0
-923 -870 0
-923 -973 0
-923 -974 0
-923 -976 0
-923 -977 0
-923 -978 0
-868 -977 0
-868 -978 0
-923 -868 975 0
-924 -865 0
-924 -866 0
-924 -867 0
-924 -868 0
-924 -870 0
-924 -974 0
-924 -975 0
-924 -976 0
-924 -977 0
-924 -978 0
-869 -976 0
-869 -978 0
-924 -869 973 0
-925 -865 0
-925 -866 0
-925 -867 0
-925 -868 0
-925 -870 0
-925 -973 0
-925 -975 0
-925 -976 0
-925 -977 0
-925 -978 0
-869 -976 0
-869 -978 0
-925 -869 974 0
-926 -865 0
-926 -866 0
-926 -867 0
-926 -868 0
-926 -870 0
-926 -973 0
-926 -974 0
-926 -976 0
-926 -977 0
-926 -978 0
-869 -976 0
-869 -978 0
-926 -869 975 0
1003 903 906 904 907 905 908 940 921 922 923 924 925 926 0
-1003 -865 973 0
1003 -865 -973 0
-1003 -866 974 0
1003 -866 -974 0
-1003 -867 975 0
1003 -867 -975 0
-1003 -868 976 0
1003 -868 -976 0
-1003 -869 977 0
1003 -869 -977 0
-1003 -870 978 0
1003 -870 -978 0
-909 -872 0
-909 -873 0
-909 -874 0
-909 -875 0
-909 -876 0
-909 -979 0
-909 -980 0
-909 -981 0
-909 -983 0
-909 -984 0
-871 -980 0
-871 -981 0
-909 -871 982 0
-912 -872 0
-912 -873 0
-912 -874 0
-912 -875 0
-912 -876 0
-912 -979 0
-912 -980 0
-912 -981 0
-912 -982 0
-912 -984 0
-871 -980 0
-871 -981 0
-912 -871 983 0
-941 -872 0
-941 -873 0
-941 -874 0
-941 -875 0
-941 -876 0
-941 -979 0
-941 -980 0
-941 -981 0
-941 -982 0
-941 -983 0
-871 -980 0
-871 -981 0
-941 -871 984 0
-910 -871 0
-910 -873 0
-910 -874 0
-910 -875 0
-910 -876 0
-910 -979 0
-910 -980 0
-910 -981 0
-910 -983 0
-910 -984 0
-872 -979 0
-872 -981 0
-872 -984 0
-910 -872 982 0
-913 -871 0
-913 -873 0
-913 -874 0
-913 -875 0
-913 -876 0
-913 -979 0
-913 -980 0
-913 -981 0
-913 -982 0
-913 -984 0
-872 -979 0
-872 -981 0
-872 -984 0
-913 -872 983 0
-911 -871 0
-911 -872 0
-911 -874 0
-911 -875 0
-911 -876 0
-911 -979 0
-911 -980 0
-911 -981 0
-911 -983 0
-911 -984 0
-873 -979 0
-873 -980 0
-873 -984 0
-911 -873 982 0
-914 -871 0
-914 -872 0
-914 -874 0
-914 -875 0
-914 -876 0
-914 -979 0
-914 -980 0
-914 -981 0
-914 -982 0
-914 -984 0
-873 -979 0
-873 -980 0
-873 -984 0
-914 -873 983 0
-927 -871 0
-927 -872 0
-927 -873 0
-927 -875 0
-927 -876 0
-927 -980 0
-927 -981 0
-927 -982 0
-927 -983 0
-927 -984 0
-874 -983 0
-874 -984 0
-927 -874 979 0
-928 -871 0
-928 -872 0
-928 -873 0
-928 -875 0
-928 -876 0
-928 -979 0
-928 -981 0
-928 -982 0
-928 -983 0
-928 -984 0
-874 -983 0
-874 -984 0
-928 -874 980 0
-929 -871 0
-929 -872 0
-929 -873 0
-929 -875 0
-929 -876 0
-929 -979 0
-929 -980 0
-929 -982 0
-929 -983 0
-929 -984 0
-874 -983 0
-874 -984 0
-929 -874 981 0
-930 -871 0
-930 -872 0
-930 -873 0
-930 -874 0
-930 -876 0
-930 -980 0
-930 -981 0
-930 -982 0
-930 -983 0
-930 -984 0
-875 -982 0
-875 -984 0
-930 -875 979 0
-931 -871 0
-931 -872 0
-931 -873 0
-931 -874 0
-931 -876 0
-931 -979 0
-931 -981 0
-931 -982 0
-931 -983 0
-931 -984 0
-875 -982 0
-875 -984 0
-931 -875 980 0
-932 -871 0
-932 -872 0
-932 -873 0
-932 -874 0
-932 -876 0
-932 -979 0
-932 -980 0
-932 -982 0
-932 -983 0
-932 -984 0
-875 -982 0
-875 -984 0
-932 -875 981 0
1004 909 912 941 910 913 911 914 927 928 929 930 931 932 0
-1004 -871 979 0
1004 -871 -979 0
-1004 -872 980 0
1004 -872 -980 0
-1004 -873 981 0
1004 -873 -981 0
-1004 -874 982 0
1004 -874 -982 0
-1004 -875 983 0
1004 -875 -983 0
-1004 -876 984 0
1004 -876 -984 0
-952 877 0
-952 985 0
-953 -986 0
-953 -877 985 0
-953 -878 985 0
-955 -878 0
-955 -985 0
-955 -877 986 0
1005 953 955 0
-1005 -877 985 0
1005 -877 -985 0
-1005 -878 986 0
1005 -878 -986 0
-915 -880 0
-915 -881 0
-915 -882 0
-915 -883 0
-915 -884 0
-915 -987 0
-915 -988 0
-915 -989 0
-915 -991 0
-915 -992 0
-879 -988 0
-879 -989 0
-915 -879 990 0
-918 -880 0
-918 -881 0
-918 -882 0
-918 -883 0
-918 -884 0
-918 -987 0
-918 -988 0
-918 -989 0
-918 -990 0
-918 -992 0
-879 -988 0
-879 -989 0
-918 -879 991 0
-939 -880 0
-939 -881 0
-939 -882 0
-939 -883 0
-939 -884 0
-939 -987 0
-939 -988 0
-939 -989 0
-939 -990 0
-939 -991 0
-879 -988 0
-879 -989 0
-939 -879 992 0
-916 -879 0
-916 -881 0
-916 -882 0
-916 -883 0
-916 -884 0
-916 -987 0
-916 -988 0
-916 -989 0
-916 -991 0
-916 -992 0
-880 -987 0
-880 -989 0
-880 -992 0
-916 -880 990 0
-919 -879 0
-919 -881 0
-919 -882 0
-919 -883 0
-919 -884 0
-919 -987 0
-919 -988 0
-919 -989 0
-919 -990 0
-919 -992 0
-880 -987 0
-880 -989 0
-880 -992 0
-919 -880 991 0
-917 -879 0
-917 -880 0
-917 -882 0
-917 -883 0
-917 -884 0
-917 -987 0
-917 -988 0
-917 -989 0
-917 -991 0
-917 -992 0
-881 -987 0
-881 -988 0
-881 -992 0
-917 -881 990 0
-920 -879 0
-920 -880 0
-920 -882 0
-920 -883 0
-920 -884 0
-920 -987 0
-920 -988 0
-920 -989 0
-920 -990 0
-920 -992 0
-881 -987 0
-881 -988 0
-881 -992 0
-920 -881 991 0
-933 -879 0
-933 -880 0
-933 -881 0
-933 -883 0
-933 -884 0
-933 -988 0
-933 -989 0
-933 -990 0
-933 -991 0
-933 -992 0
-882 -991 0
-882 -992 0
-933 -882 987 0
-934 -879 0
-934 -880 0
-934 -881 0
-934 -883 0
-934 -884 0
-934 -987 0
-934 -989 0
-934 -990 0
-934 -991 0
-934 -992 0
-882 -991 0
-882 -992 0
-934 -882 988 0
-935 -879 0
-935 -880 0
-935 -881 0
-935 -883 0
-935 -884 0
-935 -987 0
-935 -988 0
-935 -990 0
-935 -991 0
-935 -992 0
-882 -991 0
-882 -992 0
-935 -882 989 0
-936 -879 0
-936 -880 0
-936 -881 0
-936 -882 0
-936 -884 0
-936 -988 0
-936 -989 0
-936 -990 0
-936 -991 0
-936 -992 0
-883 -990 0
-883 -992 0
-936 -883 987 0
-937 -879 0
-937 -880 0
-937 -881 0
-937 -882 0
-937 -884 0
-937 -987 0
-937 -989 0
-937 -990 0
-937 -991 0
-937 -992 0
-883 -990 0
-883 -992 0
-937 -883 988 0
-938 -879 0
-938 -880 0
-938 -881 0
-938 -882 0
-938 -884 0
-938 -987 0
-938 -988 0
-938 -990 0
-938 -991 0
-938 -992 0
-883 -990 0
-883 -992 0
-938 -883 989 0
1006 915 918 939 916 919 917 920 933 934 935 936 937 938 0
-1006 -879 987 0
1006 -879 -987 0
-1006 -880 988 0
1006 -880 -988 0
-1006 -881 989 0
1006 -881 -989 0
-1006 -882 990 0
1006 -882 -990 0
-1006 -883 991 0
1006 -883 -991 0
-1006 -884 992 0
1006 -884 -992 0
-957 -994 0
-957 -885 993 0
-957 -886 993 0
-959 -886 0
-959 -993 0
-959 -885 994 0
1007 957 959 0
-1007 -885 993 0
1007 -885 -993 0
-1007 -886 994 0
1007 -886 -994 0
-940 -996 0
-887 -996 0
-940 -887 995 0
-940 -888 995 0
1008 940 0
-1008 -887 995 0
1008 -887 -995 0
-1008 -888 996 0
1008 -888 -996 0
-941 -998 0
-889 -998 0
-941 -889 997 0
-941 -890 997 0
1009 941 0
-1009 -889 997 0
1009 -889 -997 0
-1009 -890 998 0
1009 -890 -998 0
-939 -1000 0
-891 -1000 0
-939 -891 999 0
-939 -892 999 0
1010 939 0
-1010 -891 999 0
1010 -891 -999 0
-1010 -892 1000 0
1010 -892 -1000 0
-1050 -1051 0
-1050 -1051 0
-1011 -1012 0
-1011 -1013 0
-1011 -1014 0
-1011 -1015 0
-1011 -1016 0
-1011 -1029 0
-1011 -1030 0
-1011 -1031 0
-1011 -1032 0
-1011 -1033 0
-1011 -1034 0
-1011 -1048 0
-1012 -1013 0
-1012 -1014 0
-1012 -1015 0
-1012 -1016 0
-1012 -1029 0
-1012 -1030 0
-1012 -1031 0
-1012 -1032 0
-1012 -1033 0
-1012 -1034 0
-1012 -1048 0
-1013 -1014 0
-1013 -1015 0
-1013 -1016 0
-1013 -1029 0
-1013 -1030 0
-1013 -1031 0
-1013 -1032 0
-1013 -1033 0
-1013 -1034 0
-1013 -1048 0
-1014 -1015 0
-1014 -1016 0
-1014 -1029 0
-1014 -1030 0
-1014 -1031 0
-1014 -1032 0
-1014 -1033 0
-1014 -1034 0
-1014 -1048 0
-1015 -1016 0
-1015 -1029 0
-1015 -1030 0
-1015 -1031 0
-1015 -1032 0
-1015 -1033 0
-1015 -1034 0
-1015 -1048 0
-1016 -1029 0
-1016 -1030 0
-1016 -1031 0
-1016 -1032 0
-1016 -1033 0
-1016 -1034 0
-1016 -1048 0
-1029 -1030 0
-1029 -1031 0
-1029 -1032 0
-1029 -1033 0
-1029 -1034 0
-1029 -1048 0
-1030 -1031 0
-1030 -1032 0
-1030 -1033 0
-1030 -1034 0
-1030 -1048 0
-1031 -1032 0
-1031 -1033 0
-1031 -1034 0
-1031 -1048 0
-1032 -1033 0
-1032 -1034 0
-1032 -1048 0
-1033 -1034 0
-1033 -1048 0
-1034 -1048 0
-1017 -1018 0
-1017 -1019 0
-1017 -1020 0
-1017 -1021 0
-1017 -1022 0
-1017 -1035 0
-1017 -1036 0
-1017 -1037 0
-1017 -1038 0
-1017 -1039 0
-1017 -1040 0
-1017 -1049 0
-1018 -1019 0
-1018 -1020 0
-1018 -1021 0
-1018 -1022 0
-1018 -1035 0
-1018 -1036 0
-1018 -1037 0
-1018 -1038 0
-1018 -1039 0
-1018 -1040 0
-1018 -1049 0
-1019 -1020 0
-1019 -1021 0
-1019 -1022 0
-1019 -1035 0
-1019 -1036 0
-1019 -1037 0
-1019 -1038 0
-1019 -1039 0
-1019 -1040 0
-1019 -1049 0
-1020 -1021 0
-1020 -1022 0
-1020 -1035 0
-1020 -1036 0
-1020 -1037 0
-1020 -1038 0
-1020 -1039 0
-1020 -1040 0
-1020 -1049 0
-1021 -1022 0
-1021 -1035 0
-1021 -1036 0
-1021 -1037 0
-1021 -1038 0
-1021 -1039 0
-1021 -1040 0
-1021 -1049 0
-1022 -1035 0
-1022 -1036 0
-1022 -1037 0
-1022 -1038 0
-1022 -1039 0
-1022 -1040 0
-1022 -1049 0
-1035 -1036 0
-1035 -1037 0
-1035 -1038 0
-1035 -1039 0
-1035 -1040 0
-1035 -1049 0
-1036 -1037 0
-1036 -1038 0
-1036 -1039 0
-1036 -1040 0
-1036 -1049 0
-1037 -1038 0
-1037 -1039 0
-1037 -1040 0
-1037 -1049 0
-1038 -1039 0
-1038 -1040 0
-1038 -1049 0
-1039 -1040 0
-1039 -1049 0
-1040 -1049 0
-1011 -1012 0
-1011 -1013 0
-1011 -1017 0
-1011 -1018 0
-1011 -1019 0
-1011 -1023 0
-1011 -1024 0
-1011 -1025 0
-1011 -1029 0
-1011 -1030 0
-1011 -1031 0
-1011 -1035 0
-1011 -1036 0
-1011 -1037 0
-1011 -1041 0
-1011 -1042 0
-1011 -1043 0
-1012 -1013 0
-1012 -1017 0
-1012 -1018 0
-1012 -1019 0
-1012 -1023 0
-1012 -1024 0
-1012 -1025 0
-1012 -1029 0
-1012 -1030 0
-1012 -1031 0
-1012 -1035 0
-1012 -1036 0
-1012 -1037 0
-1012 -1041 0
-1012 -1042 0
-1012 -1043 0
-1013 -1017 0
-1013 -1018 0
-1013 -1019 0
-1013 -1023 0
-1013 -1024 0
-1013 -1025 0
-1013 -1029 0
-1013 -1030 0
-1013 -1031 0
-1013 -1035 0
-1013 -1036 0
-1013 -1037 0
-1013 -1041 0
-1013 -1042 0
-1013 -1043 0
-1017 -1018 0
-1017 -1019 0
-1017 -1023 0
-1017 -1024 0
-1017 -1025 0
-1017 -1029 0
-1017 -1030 0
-1017 -1031 0
-1017 -1035 0
-1017 -1036 0
-1017 -1037 0
-1017 -1041 0
-1017 -1042 0
-1017 -1043 0
-1018 -1019 0
-1018 -1023 0
-1018 -1024 0
-1018 -1025 0
-1018 -1029 0
-1018 -1030 0
-1018 -1031 0
-1018 -1035 0
-1018 -1036 0
-1018 -1037 0
-1018 -1041 0
-1018 -1042 0
-1018 -1043 0
-1019 -1023 0
-1019 -1024 0
-1019 -1025 0
-1019 -1029 0
-1019 -1030 0
-1019 -1031 0
-1019 -1035 0
-1019 -1036 0
-1019 -1037 0
-1019 -1041 0
-1019 -1042 0
-1019 -1043 0
-1023 -1024 0
-1023 -1025 0
-1023 -1029 0
-1023 -1030 0
-1023 -1031 0
-1023 -1035 0
-1023 -1036 0
-1023 -1037 0
-1023 -1041 0
-1023 -1042 0
-1023 -1043 0
-1024 -1025 0
-1024 -1029 0
-1024 -1030 0
-1024 -1031 0
-1024 -1035 0
-1024 -1036 0
-1024 -1037 0
-1024 -1041 0
-1024 -1042 0
-1024 -1043 0
-1025 -1029 0
-1025 -1030 0
-1025 -1031 0
-1025 -1035 0
-1025 -1036 0
-1025 -1037 0
-1025 -1041 0
-1025 -1042 0
-1025 -1043 0
-1029 -1030 0
-1029 -1031 0
-1029 -1035 0
-1029 -1036 0
-1029 -1037 0
-1029 -1041 0
-1029 -1042 0
-1029 -1043 0
-1030 -1031 0
-1030 -1035 0
-1030 -1036 0
-1030 -1037 0
-1030 -1041 0
-1030 -1042 0
-1030 -1043 0
-1031 -1035 0
-1031 -1036 0
-1031 -1037 0
-1031 -1041 0
-1031 -1042 0
-1031 -1043 0
-1035 -1036 0
-1035 -1037 0
-1035 -1041 0
-1035 -1042 0
-1035 -1043 0
-1036 -1037 0
-1036 -1041 0
-1036 -1042 0
-1036 -1043 0
-1037 -1041 0
-1037 -1042 0
-1037 -1043 0
-1041 -1042 0
-1041 -1043 0
-1042 -1043 0
-1023 -1024 0
-1023 -1025 0
-1023 -1026 0
-1023 -1027 0
-1023 -1028 0
-1023 -1041 0
-1023 -1042 0
-1023 -1043 0
-1023 -1044 0
-1023 -1045 0
-1023 -1046 0
-1023 -1047 0
-1024 -1025 0
-1024 -1026 0
-1024 -1027 0
-1024 -1028 0
-1024 -1041 0
-1024 -1042 0
-1024 -1043 0
-1024 -1044 0
-1024 -1045 0
-1024 -1046 0
-1024 -1047 0
-1025 -1026 0
-1025 -1027 0
-1025 -1028 0
-1025 -1041 0
-1025 -1042 0
-1025 -1043 0
-1025 -1044 0
-1025 -1045 0
-1025 -1046 0
-1025 -1047 0
-1026 -1027 0
-1026 -1028 0
-1026 -1041 0
-1026 -1042 0
-1026 -1043 0
-1026 -1044 0
-1026 -1045 0
-1026 -1046 0
-1026 -1047 0
-1027 -1028 0
-1027 -1041 0
-1027 -1042 0
-1027 -1043 0
-1027 -1044 0
-1027 -1045 0
-1027 -1046 0
-1027 -1047 0
-1028 -1041 0
-1028 -1042 0
-1028 -1043 0
-1028 -1044 0
-1028 -1045 0
-1028 -1046 0
-1028 -1047 0
-1041 -1042 0
-1041 -1043 0
-1041 -1044 0
-1041 -1045 0
-1041 -1046 0
-1041 -1047 0
-1042 -1043 0
-1042 -1044 0
-1042 -1045 0
-1042 -1046 0
-1042 -1047 0
-1043 -1044 0
-1043 -1045 0
-1043 -1046 0
-1043 -1047 0
-1044 -1045 0
-1044 -1046 0
-1044 -1047 0
-1045 -1046 0
-1045 -1047 0
-1046 -1047 0
-1014 -1015 0
-1014 -1016 0
-1014 -1020 0
-1014 -1021 0
-1014 -1022 0
-1014 -1026 0
-1014 -1027 0
-1014 -1028 0
-1014 -1032 0
-1014 -1033 0
-1014 -1034 0
-1014 -1038 0
-1014 -1039 0
-1014 -1040 0
-1014 -1044 0
-1014 -1045 0
-1014 -1046 0
-1015 -1016 0
-1015 -1020 0
-1015 -1021 0
-1015 -1022 0
-1015 -1026 0
-1015 -1027 0
-1015 -1028 0
-1015 -1032 0
-1015 -1033 0
-1015 -1034 0
-1015 -1038 0
-1015 -1039 0
-1015 -1040 0
-1015 -1044 0
-1015 -1045 0
-1015 -1046 0
-1016 -1020 0
-1016 -1021 0
-1016 -1022 0
-1016 -1026 0
-1016 -1027 0
-1016 -1028 0
-1016 -1032 0
-1016 -1033 0
-1016 -1034 0
-1016 -1038 0
-1016 -1039 0
-1016 -1040 0
-1016 -1044 0
-1016 -1045 0
-1016 -1046 0
-1020 -1021 0
-1020 -1022 0
-1020 -1026 0
-1020 -1027 0
-1020 -1028 0
-1020 -1032 0
-1020 -1033 0
-1020 -1034 0
-1020 -1038 0
-1020 -1039 0
-1020 -1040 0
-1020 -1044 0
-1020 -1045 0
-1020 -1046 0
-1021 -1022 0
-1021 -1026 0
-1021 -1027 0
-1021 -1028 0
-1021 -1032 0
-1021 -1033 0
-1021 -1034 0
-1021 -1038 0
-1021 -1039 0
-1021 -1040 0
-1021 -1044 0
-1021 -1045 0
-1021 -1046 0
-1022 -1026 0
-1022 -1027 0
-1022 -1028 0
-1022 -1032 0
-1022 -1033 0
-1022 -1034 0
-1022 -1038 0
-1022 -1039 0
-1022 -1040 0
-1022 -1044 0
-1022 -1045 0
-1022 -1046 0
-1026 -1027 0
-1026 -1028 0
-1026 -1032 0
-1026 -1033 0
-1026 -1034 0
-1026 -1038 0
-1026 -1039 0
-1026 -1040 0
-1026 -1044 0
-1026 -1045 0
-1026 -1046 0
-1027 -1028 0
-1027 -1032 0
-1027 -1033 0
-1027 -1034 0
-1027 -1038 0
-1027 -1039 0
-1027 -1040 0
-1027 -1044 0
-1027 -1045 0
-1027 -1046 0
-1028 -1032 0
-1028 -1033 0
-1028 -1034 0
-1028 -1038 0
-1028 -1039 0
-1028 -1040 0
-1028 -1044 0
-1028 -1045 0
-1028 -1046 0
-1032 -1033 0
-1032 -1034 0
-1032 -1038 0
-1032 -1039 0
-1032 -1040 0
-1032 -1044 0
-1032 -1045 0
-1032 -1046 0
-1033 -1034 0
-1033 -1038 0
-1033 -1039 0
-1033 -1040 0
-1033 -1044 0
-1033 -1045 0
-1033 -1046 0
-1034 -1038 0
-1034 -1039 0
-1034 -1040 0
-1034 -1044 0
-1034 -1045 0
-1034 -1046 0
-1038 -1039 0
-1038 -1040 0
-1038 -1044 0
-1038 -1045 0
-1038 -1046 0
-1039 -1040 0
-1039 -1044 0
-1039 -1045 0
-1039 -1046 0
-1040 -1044 0
-1040 -1045 0
-1040 -1046 0
-1044 -1045 0
-1044 -1046 0
-1045 -1046 0
1011 1012 1013 1014 1015 1016 1017 1018 1019 1020 1021 1022 1023 1024 1025 1026 1027 1028 1029 1030 1031 1032 1033 1034 1035 1036 1037 1038 1039 1040 1041 1042 1043 1044 1045 1046 1047 1048 1049 1050 1051 0
-1011 1052 0
-1014 1052 0
-1017 1052 0
-1020 1052 0
-1023 1052 0
-1026 1052 0
-1029 1052 0
-1032 1052 0
-1035 1052 0
-1038 1052 0
-1041 1052 0
-1044 1052 0
-1052 1011 1014 1017 1020 1023 1026 1029 1032 1035 1038 1041 1044 0
-1047 1053 0
-1048 1053 0
-1049 1053 0
-1053 1047 1048 1049 0
-1012 1054 0
-1015 1054 0
-1018 1054 0
-1021 1054 0
-1024 1054 0
-1027 1054 0
-1030 1054 0
-1033 1054 0
-1036 1054 0
-1039 1054 0
-1042 1054 0
-1045 1054 0
-1054 1012 1015 1018 1021 1024 1027 1030 1033 1036 1039 1042 1045 0
-1013 1055 0
-1016 1055 0
-1019 1055 0
-1022 1055 0
-1025 1055 0
-1028 1055 0
-1031 1055 0
-1034 1055 0
-1037 1055 0
-1040 1055 0
-1043 1055 0
-1046 1055 0
-1055 1013 1016 1019 1022 1025 1028 1031 1034 1037 1040 1043 1046 0
-1011 1056 0
-1012 1056 0
-1013 1056 0
-1014 1056 0
-1015 1056 0
-1016 1056 0
-1017 1056 0
-1018 1056 0
-1019 1056 0
-1020 1056 0
-1021 1056 0
-1022 1056 0
-1023 1056 0
-1024 1056 0
-1025 1056 0
-1026 1056 0
-1027 1056 0
-1028 1056 0
-1029 1056 0
-1030 1056 0
-1031 1056 0
-1032 1056 0
-1033 1056 0
-1034 1056 0
-1035 1056 0
-1036 1056 0
-1037 1056 0
-1038 1056 0
-1039 1056 0
-1040 1056 0
-1041 1056 0
-1042 1056 0
-1043 1056 0
-1044 1056 0
-1045 1056 0
-1046 1056 0
-1056 1011 1012 1013 1014 1015 1016 1017 1018 1019 1020 1021 1022 1023 1024 1025 1026 1027 1028 1029 1030 1031 1032 1033 1034 1035 1036 1037 1038 1039 1040 1041 1042 1043 1044 1045 1046 0
-1047 1057 0
-1049 1057 0
-1057 1047 1049 0
-1017 1058 0
-1018 1058 0
-1019 1058 0
-1020 1058 0
-1021 1058 0
-1022 1058 0
-1023 1058 0
-1024 1058 0
-1025 1058 0
-1026 1058 0
-1027 1058 0
-1028 1058 0
-1035 1058 0
-1036 1058 0
-1037 1058 0
-1038 1058 0
-1039 1058 0
-1040 1058 0
-1041 1058 0
-1042 1058 0
-1043 1058 0
-1044 1058 0
-1045 1058 0
-1046 1058 0
-1047 1058 0
-1049 1058 0
-1050 1058 0
-1051 1058 0
-1058 1017 1018 1019 1020 1021 1022 1023 1024 1025 1026 1027 1028 1035 1036 1037 1038 1039 1040 1041 1042 1043 1044 1045 1046 1047 1049 1050 1051 0
-1011 1059 0
-1012 1059 0
-1013 1059 0
-1014 1059 0
-1015 1059 0
-1016 1059 0
-1023 1059 0
-1024 1059 0
-1025 1059 0
-1026 1059 0
-1027 1059 0
-1028 1059 0
-1029 1059 0
-1030 1059 0
-1031 1059 0
-1032 1059 0
-1033 1059 0
-1034 1059 0
-1041 1059 0
-1042 1059 0
-1043 1059 0
-1044 1059 0
-1045 1059 0
-1046 1059 0
-1047 1059 0
-1048 1059 0
-1050 1059 0
-1051 1059 0
-1059 1011 1012 1013 1014 1015 1016 1023 1024 1025 1026 1027 1028 1029 1030 1031 1032 1033 1034 1041 1042 1043 1044 1045 1046 1047 1048 1050 1051 0
-1014 1060 0
-1015 1060 0
-1016 1060 0
-1020 1060 0
-1021 1060 0
-1022 1060 0
-1026 1060 0
-1027 1060 0
-1028 1060 0
-1032 1060 0
-1033 1060 0
-1034 1060 0
-1038 1060 0
-1039 1060 0
-1040 1060 0
-1044 1060 0
-1045 1060 0
-1046 1060 0
-1060 1014 1015 1016 1020 1021 1022 1026 1027 1028 1032 1033 1034 1038 1039 1040 1044 1045 1046 0
-1029 1061 0
-1030 1061 0
-1031 1061 0
-1035 1061 0
-1036 1061 0
-1037 1061 0
-1041 1061 0
-1042 1061 0
-1043 1061 0
-1061 1029 1030 1031 1035 1036 1037 1041 1042 1043 0
-1047 1062 0
-1048 1062 0
-1049 1062 0
-1050 1062 0
-1051 1062 0
-1062 1047 1048 1049 1050 1051 0
-1011 1063 0
-1012 1063 0
-1013 1063 0
-1017 1063 0
-1018 1063 0
-1019 1063 0
-1023 1063 0
-1024 1063 0
-1025 1063 0
-1063 1011 1012 1013 1017 1018 1019 1023 1024 1025 0
-1011 1064 0
-1012 1064 0
-1013 1064 0
-1014 1064 0
-1015 1064 0
-1016 1064 0
-1017 1064 0
-1018 1064 0
-1019 1064 0
-1020 1064 0
-1021 1064 0
-1022 1064 0
-1029 1064 0
-1030 1064 0
-1031 1064 0
-1032 1064 0
-1033 1064 0
-1034 1064 0
-1035 1064 0
-1036 1064 0
-1037 1064 0
-1038 1064 0
-1039 1064 0
-1040 1064 0
-1048 1064 0
-1049 1064 0
-1050 1064 0
-1051 1064 0
-1064 1011 1012 1013 1014 1015 1016 1017 1018 1019 1020 1021 1022 1029 1030 1031 1032 1033 1034 1035 1036 1037 1038 1039 1040 1048 1049 1050 1051 0
-1032 1065 0
-1033 1065 0
-1034 1065 0
-1038 1065 0
-1039 1065 0
-1040 1065 0
-1044 1065 0
-1045 1065 0
-1046 1065 0
-1065 1032 1033 1034 1038 1039 1040 1044 1045 1046 0
-1011 1066 0
-1012 1066 0
-1013 1066 0
-1017 1066 0
-1018 1066 0
-1019 1066 0
-1023 1066 0
-1024 1066 0
-1025 1066 0
-1029 1066 0
-1030 1066 0
-1031 1066 0
-1035 1066 0
-1036 1066 0
-1037 1066 0
-1041 1066 0
-1042 1066 0
-1043 1066 0
-1047 1066 0
-1048 1066 0
-1049 1066 0
-1050 1066 0
-1051 1066 0
-1066 1011 1012 1013 1017 1018 1019 1023 1024 1025 1029 1030 1031 1035 1036 1037 1041 1042 1043 1047 1048 1049 1050 1051 0
-1014 1067 0
-1015 1067 0
-1016 1067 0
-1020 1067 0
-1021 1067 0
-1022 1067 0
-1026 1067 0
-1027 1067 0
-1028 1067 0
-1067 1014 1015 1016 1020 1021 1022 1026 1027 1028 0
-1011 1068 0
-1012 1068 0
-1013 1068 0
-1014 1068 0
-1015 1068 0
-1016 1068 0
-1017 1068 0
-1018 1068 0
-1019 1068 0
-1020 1068 0
-1021 1068 0
-1022 1068 0
-1023 1068 0
-1024 1068 0
-1025 1068 0
-1026 1068 0
-1027 1068 0
-1028 1068 0
-1029 1068 0
-1030 1068 0
-1031 1068 0
-1032 1068 0
-1033 1068 0
-1034 1068 0
-1035 1068 0
-1036 1068 0
-1037 1068 0
-1038 1068 0
-1039 1068 0
-1040 1068 0
-1041 1068 0
-1042 1068 0
-1043 1068 0
-1044 1068 0
-1045 1068 0
-1046 1068 0
-1047 1068 0
-1049 1068 0
-1050 1068 0
-1051 1068 0
-1068 1011 1012 1013 1014 1015 1016 1017 1018 1019 1020 1021 1022 1023 1024 1025 1026 1027 1028 1029 1030 1031 1032 1033 1034 1035 1036 1037 1038 1039 1040 1041 1042 1043 1044 1045 1046 1047 1049 1050 1051 0
-1011 1069 0
-1012 1069 0
-1013 1069 0
-1014 1069 0
-1015 1069 0
-1016 1069 0
-1017 1069 0
-1018 1069 0
-1019 1069 0
-1020 1069 0
-1021 1069 0
-1022 1069 0
-1023 1069 0
-1024 1069 0
-1025 1069 0
-1026 1069 0
-1027 1069 0
-1028 1069 0
-1029 1069 0
-1030 1069 0
-1031 1069 0
-1032 1069 0
-1033 1069 0
-1034 1069 0
-1035 1069 0
-1036 1069 0
-1037 1069 0
-1038 1069 0
-1039 1069 0
-1040 1069 0
-1041 1069 0
-1042 1069 0
-1043 1069 0
-1044 1069 0
-1045 1069 0
-1046 1069 0
-1047 1069 0
-1048 1069 0
-1050 1069 0
-1051 1069 0
-1069 1011 1012 1013 1014 1015 1016 1017 1018 1019 1020 1021 1022 1023 1024 1025 1026 1027 1028 1029 1030 1031 1032 1033 1034 1035 1036 1037 1038 1039 1040 1041 1042 1043 1044 1045 1046 1047 1048 1050 1051 0
-1011 1070 0
-1012 1070 0
-1013 1070 0
-1014 1070 0
-1015 1070 0
-1016 1070 0
-1017 1070 0
-1018 1070 0
-1019 1070 0
-1020 1070 0
-1021 1070 0
-1022 1070 0
-1023 1070 0
-1024 1070 0
-1025 1070 0
-1026 1070 0
-1027 1070 0
-1028 1070 0
-1029 1070 0
-1030 1070 0
-1031 1070 0
-1032 1070 0
-1033 1070 0
-1034 1070 0
-1035 1070 0
-1036 1070 0
-1037 1070 0
-1038 1070 0
-1039 1070 0
-1040 1070 0
-1041 1070 0
-1042 1070 0
-1043 1070 0
-1044 1070 0
-1045 1070 0
-1046 1070 0
-1048 1070 0
-1049 1070 0
-1050 1070 0
-1051 1070 0
-1070 1011 1012 1013 1014 1015 1016 1017 1018 1019 1020 1021 1022 1023 1024 1025 1026 1027 1028 1029 1030 1031 1032 1033 1034 1035 1036 1037 1038 1039 1040 1041 1042 1043 1044 1045 1046 1048 1049 1050 1051 0
-1071 -1072 0
-1071 -1073 0
-1072 -1073 0
1071 1072 1073 0
-1074 -1075 0
-1074 -1076 0
-1074 -1077 0
-1074 -1078 0
-1074 -1079 0
-1074 -1080 0
-1075 -1076 0
-1075 -1077 0
-1075 -1078 0
-1075 -1079 0
-1075 -1080 0
-1076 -1077 0
-1076 -1078 0
-1076 -1079 0
-1076 -1080 0
-1077 -1078 0
-1077 -1079 0
-1077 -1080 0
-1078 -1079 0
-1078 -1080 0
-1079 -1080 0
1074 1075 1076 1077 1078 1079 1080 0
-1081 -1082 0
-1081 -1083 0
-1081 -1084 0
-1081 -1085 0
-1081 -1086 0
-1082 -1083 0
-1082 -1084 0
-1082 -1085 0
-1082 -1086 0
-1083 -1084 0
-1083 -1085 0
-1083 -1086 0
-1084 -1085 0
-1084 -1086 0
-1085 -1086 0
1081 1082 1083 1084 1085 1086 0
-1087 -1088 0
-1087 -1089 0
-1087 -1090 0
-1087 -1091 0
-1087 -1092 0
-1088 -1089 0
-1088 -1090 0
-1088 -1091 0
-1088 -1092 0
-1089 -1090 0
-1089 -1091 0
-1089 -1092 0
-1090 -1091 0
-1090 -1092 0
-1091 -1092 0
1087 1088 1089 1090 1091 1092 0
-1093 -1094 0
1093 1094 0
-1095 -1096 0
-1095 -1097 0
-1095 -1098 0
-1095 -1099 0
-1095 -1100 0
-1096 -1097 0
-1096 -1098 0
-1096 -1099 0
-1096 -1100 0
-1097 -1098 0
-1097 -1099 0
-1097 -1100 0
-1098 -1099 0
-1098 -1100 0
-1099 -1100 0
1095 1096 1097 1098 1099 1100 0
-1101 -1102 0
1101 1102 0
-1103 -1104 0
1103 1104 0
-1105 -1106 0
1105 1106 0
-1107 -1108 0
1107 1108 0
-1052 963 0
-1052 1071 0
-1050 -965 0
-1050 -963 -1071 0
-1050 -964 -1072 0
-1054 964 0
-1054 1072 0
-1051 -963 0
-1051 -964 0
-1051 -1073 0
-1055 965 0
-1055 1073 0
1109 1050 1051 0
-1109 -963 1071 0
1109 -963 -1071 0
-1109 -964 1072 0
1109 -964 -1072 0
-1109 -965 1073 0
1109 -965 -1073 0
-1051 -967 0
-1051 -972 0
-1051 -1074 0
-1051 -1076 0
-966 -1076 0
-966 -1077 0
-966 -1078 0
-966 -1079 0
-966 -1080 0
-1051 -966 1075 0
-968 -1074 0
-968 -1075 0
-968 -1078 0
-968 -1079 0
-968 -1080 0
-1051 -968 1077 0
-969 -1074 0
-969 -1075 0
-969 -1076 0
-969 -1079 0
-969 -1080 0
-1051 -969 1078 0
-970 -1074 0
-970 -1075 0
-970 -1076 0
-970 -1077 0
-970 -1080 0
-1051 -970 1079 0
-971 -1074 0
-971 -1075 0
-971 -1076 0
-971 -1077 0
-971 -1078 0
-1051 -971 1080 0
-1057 967 968 969 970 971 972 0
-1057 1075 1076 1077 1078 1079 1080 0
-1050 -966 0
-1050 -972 0
-1050 -1074 0
-1050 -1075 0
-967 -1074 0
-967 -1077 0
-967 -1078 0
-967 -1079 0
-967 -1080 0
-1050 -967 1076 0
-968 -1074 0
-968 -1075 0
-968 -1078 0
-968 -1079 0
-968 -1080 0
-1050 -968 1077 0
-969 -1074 0
-969 -1075 0
-969 -1076 0
-969 -1079 0
-969 -1080 0
-1050 -969 1078 0
-970 -1074 0
-970 -1075 0
-970 -1076 0
-970 -1077 0
-970 -1080 0
-1050 -970 1079 0
-971 -1074 0
-971 -1075 0
-971 -1076 0
-971 -1077 0
-971 -1078 0
-1050 -971 1080 0
-1048 968 969 0
-1048 1076 1077 0
1110 1051 1050 0
-1110 -966 1074 0
1110 -966 -1074 0
-1110 -967 1075 0
1110 -967 -1075 0
-1110 -968 1076 0
1110 -968 -1076 0
-1110 -969 1077 0
1110 -969 -1077 0
-1110 -970 1078 0
1110 -970 -1078 0
-1110 -971 1079 0
1110 -971 -1079 0
-1110 -972 1080 0
1110 -972 -1080 0
-1011 -974 0
-1011 -975 0
-1011 -976 0
-1011 -977 0
-1011 -978 0
-1011 -1081 0
-1011 -1082 0
-1011 -1083 0
-1011 -1085 0
-1011 -1086 0
-973 -1082 0
-973 -1083 0
-973 -1086 0
-1011 -973 1084 0
-1014 -974 0
-1014 -975 0
-1014 -976 0
-1014 -977 0
-1014 -978 0
-1014 -1081 0
-1014 -1082 0
-1014 -1083 0
-1014 -1084 0
-1014 -1086 0
-973 -1082 0
-973 -1083 0
-973 -1086 0
-1014 -973 1085 0
-1012 -973 0
-1012 -975 0
-1012 -976 0
-1012 -977 0
-1012 -978 0
-1012 -1081 0
-1012 -1082 0
-1012 -1083 0
-1012 -1085 0
-1012 -1086 0
-974 -1081 0
-974 -1083 0
-974 -1086 0
-1012 -974 1084 0
-1015 -973 0
-1015 -975 0
-1015 -976 0
-1015 -977 0
-1015 -978 0
-1015 -1081 0
-1015 -1082 0
-1015 -1083 0
-1015 -1084 0
-1015 -1086 0
-974 -1081 0
-974 -1083 0
-974 -1086 0
-1015 -974 1085 0
-1013 -973 0
-1013 -974 0
-1013 -976 0
-1013 -977 0
-1013 -978 0
-1013 -1081 0
-1013 -1082 0
-1013 -1083 0
-1013 -1085 0
-1013 -1086 0
-975 -1081 0
-975 -1082 0
-1013 -975 1084 0
-1016 -973 0
-1016 -974 0
-1016 -976 0
-1016 -977 0
-1016 -978 0
-1016 -1081 0
-1016 -1082 0
-1016 -1083 0
-1016 -1084 0
-1016 -1086 0
-975 -1081 0
-975 -1082 0
-1016 -975 1085 0
-1048 -973 0
-1048 -974 0
-1048 -976 0
-1048 -977 0
-1048 -978 0
-1048 -1081 0
-1048 -1082 0
-1048 -1083 0
-1048 -1084 0
-1048 -1085 0
-975 -1081 0
-975 -1082 0
-1048 -975 1086 0
-1029 -973 0
-1029 -974 0
-1029 -975 0
-1029 -977 0
-1029 -978 0
-1029 -1082 0
-1029 -1083 0
-1029 -1084 0
-1029 -1085 0
-1029 -1086 0
-976 -1085 0
-976 -1086 0
-1029 -976 1081 0
-1030 -973 0
-1030 -974 0
-1030 -975 0
-1030 -977 0
-1030 -978 0
-1030 -1081 0
-1030 -1083 0
-1030 -1084 0
-1030 -1085 0
-1030 -1086 0
-976 -1085 0
-976 -1086 0
-1030 -976 1082 0
-1031 -973 0
-1031 -974 0
-1031 -975 0
-1031 -977 0
-1031 -978 0
-1031 -1081 0
-1031 -1082 0
-1031 -1084 0
-1031 -1085 0
-1031 -1086 0
-976 -1085 0
-976 -1086 0
-1031 -976 1083 0
-1032 -973 0
-1032 -974 0
-1032 -975 0
-1032 -976 0
-1032 -978 0
-1032 -1082 0
-1032 -1083 0
-1032 -1084 0
-1032 -1085 0
-1032 -1086 0
-977 -1084 0
-977 -1086 0
-1032 -977 1081 0
-1033 -973 0
-1033 -974 0
-1033 -975 0
-1033 -976 0
-1033 -978 0
-1033 -1081 0
-1033 -1083 0
-1033 -1084 0
-1033 -1085 0
-1033 -1086 0
-977 -1084 0
-977 -1086 0
-1033 -977 1082 0
-1034 -973 0
-1034 -974 0
-1034 -975 0
-1034 -976 0
-1034 -978 0
-1034 -1081 0
-1034 -1082 0
-1034 -1084 0
-1034 -1085 0
-1034 -1086 0
-977 -1084 0
-977 -1086 0
-1034 -977 1083 0
1111 1011 1014 1012 1015 1013 1016 1048 1029 1030 1031 1032 1033 1034 0
-1111 -973 1081 0
1111 -973 -1081 0
-1111 -974 1082 0
1111 -974 -1082 0
-1111 -975 1083 0
1111 -975 -1083 0
-1111 -976 1084 0
1111 -976 -1084 0
-1111 -977 1085 0
1111 -977 -1085 0
-1111 -978 1086 0
1111 -978 -1086 0
-1017 -980 0
-1017 -981 0
-1017 -982 0
-1017 -983 0
-1017 -984 0
-1017 -1087 0
-1017 -1088 0
-1017 -1089 0
-1017 -1091 0
-1017 -1092 0
-979 -1088 0
-979 -1089 0
-1017 -979 1090 0
-1020 -980 0
-1020 -981 0
-1020 -982 0
-1020 -983 0
-1020 -984 0
-1020 -1087 0
-1020 -1088 0
-1020 -1089 0
-1020 -1090 0
-1020 -1092 0
-979 -1088 0
-979 -1089 0
-1020 -979 1091 0
-1049 -980 0
-1049 -981 0
-1049 -982 0
-1049 -983 0
-1049 -984 0
-1049 -1087 0
-1049 -1088 0
-1049 -1089 0
-1049 -1090 0
-1049 -1091 0
-979 -1088 0
-979 -1089 0
-1049 -979 1092 0
-1018 -979 0
-1018 -981 0
-1018 -982 0
-1018 -983 0
-1018 -984 0
-1018 -1087 0
-1018 -1088 0
-1018 -1089 0
-1018 -1091 0
-1018 -1092 0
-980 -1087 0
-980 -1089 0
-980 -1092 0
-1018 -980 1090 0
-1021 -979 0
-1021 -981 0
-1021 -982 0
-1021 -983 0
-1021 -984 0
-1021 -1087 0
-1021 -1088 0
-1021 -1089 0
-1021 -1090 0
-1021 -1092 0
-980 -1087 0
-980 -1089 0
-980 -1092 0
-1021 -980 1091 0
-1019 -979 0
-1019 -980 0
-1019 -982 0
-1019 -983 0
-1019 -984 0
-1019 -1087 0
-1019 -1088 0
-1019 -1089 0
-1019 -1091 0
-1019 -1092 0
-981 -1087 0
-981 -1088 0
-981 -1092 0
-1019 -981 1090 0
-1022 -979 0
-1022 -980 0
-1022 -982 0
-1022 -983 0
-1022 -984 0
-1022 -1087 0
-1022 -1088 0
-1022 -1089 0
-1022 -1090 0
-1022 -1092 0
-981 -1087 0
-981 -1088 0
-981 -1092 0
-1022 -981 1091 0
-1035 -979 0
-1035 -980 0
-1035 -981 0
-1035 -983 0
-1035 -984 0
-1035 -1088 0
-1035 -1089 0
-1035 -1090 0
-1035 -1091 0
-1035 -1092 0
-982 -1091 0
-982 -1092 0
-1035 -982 1087 0
-1036 -979 0
-1036 -980 0
-1036 -981 0
-1036 -983 0
-1036 -984 0
-1036 -1087 0
-1036 -1089 0
-1036 -1090 0
-1036 -1091 0
-1036 -1092 0
-982 -1091 0
-982 -1092 0
-1036 -982 1088 0
-1037 -979 0
-1037 -980 0
-1037 -981 0
-1037 -983 0
-1037 -984 0
-1037 -1087 0
-1037 -1088 0
-1037 -1090 0
-1037 -1091 0
-1037 -1092 0
-982 -1091 0
-982 -1092 0
-1037 -982 1089 0
-1038 -979 0
-1038 -980 0
-1038 -981 0
-1038 -982 0
-1038 -984 0
-1038 -1088 0
-1038 -1089 0
-1038 -1090 0
-1038 -1091 0
-1038 -1092 0
-983 -1090 0
-983 -1092 0
-1038 -983 1087 0
-1039 -979 0
-1039 -980 0
-1039 -981 0
-1039 -982 0
-1039 -984 0
-1039 -1087 0
-1039 -1089 0
-1039 -1090 0
-1039 -1091 0
-1039 -1092 0
-983 -1090 0
-983 -1092 0
-1039 -983 1088 0
-1040 -979 0
-1040 -980 0
-1040 -981 0
-1040 -982 0
-1040 -984 0
-1040 -1087 0
-1040 -1088 0
-1040 -1090 0
-1040 -1091 0
-1040 -1092 0
-983 -1090 0
-983 -1092 0
-1040 -983 1089 0
1112 1017 1020 1049 1018 1021 1019 1022 1035 1036 1037 1038 1039 1040 0
-1112 -979 1087 0
1112 -979 -1087 0
-1112 -980 1088 0
1112 -980 -1088 0
-1112 -981 1089 0
1112 -981 -1089 0
-1112 -982 1090 0
1112 -982 -1090 0
-1112 -983 1091 0
1112 -983 -1091 0
-1112 -984 1092 0
1112 -984 -1092 0
-1060 985 0
-1060 1093 0
-1061 -1094 0
-1061 -985 1093 0
-1061 -986 1093 0
-1063 -986 0
-1063 -1093 0
-1063 -985 1094 0
1113 1061 1063 0
-1113 -985 1093 0
1113 -985 -1093 0
-1113 -986 1094 0
1113 -986 -1094 0
-1023 -988 0
-1023 -989 0
-1023 -990 0
-1023 -991 0
-1023 -992 0
-1023 -1095 0
-1023 -1096 0
-1023 -1097 0
-1023 -1099 0
-1023 -1100 0
-987 -1096 0
-987 -1097 0
-1023 -987 1098 0
-1026 -988 0
-1026 -989 0
-1026 -990 0
-1026 -991 0
-1026 -992 0
-1026 -1095 0
-1026 -1096 0
-1026 -1097 0
-1026 -1098 0
-1026 -1100 0
-987 -1096 0
-987 -1097 0
-1026 -987 1099 0
-1047 -988 0
-1047 -989 0
-1047 -990 0
-1047 -991 0
-1047 -992 0
-1047 -1095 0
-1047 -1096 0
-1047 -1097 0
-1047 -1098 0
-1047 -1099 0
-987 -1096 0
-987 -1097 0
-1047 -987 1100 0
-1024 -987 0
-1024 -989 0
-1024 -990 0
-1024 -991 0
-1024 -992 0
-1024 -1095 0
-1024 -1096 0
-1024 -1097 0
-1024 -1099 0
-1024 -1100 0
-988 -1095 0
-988 -1097 0
-988 -1100 0
-1024 -988 1098 0
-1027 -987 0
-1027 -989 0
-1027 -990 0
-1027 -991 0
-1027 -992 0
-1027 -1095 0
-1027 -1096 0
-1027 -1097 0
-1027 -1098 0
-1027 -1100 0
-988 -1095 0
-988 -1097 0
-988 -1100 0
-1027 -988 1099 0
-1025 -987 0
-1025 -988 0
-1025 -990 0
-1025 -991 0
-1025 -992 0
-1025 -1095 0
-1025 -1096 0
-1025 -1097 0
-1025 -1099 0
-1025 -1100 0
-989 -1095 0
-989 -1096 0
-989 -1100 0
-1025 -989 1098 0
-1028 -987 0
-1028 -988 0
-1028 -990 0
-1028 -991 0
-1028 -992 0
-1028 -1095 0
-1028 -1096 0
-1028 -1097 0
-1028 -1098 0
-1028 -1100 0
-989 -1095 0
-989 -1096 0
-989 -1100 0
-1028 -989 1099 0
-1041 -987 0
-1041 -988 0
-1041 -989 0
-1041 -991 0
-1041 -992 0
-1041 -1096 0
-1041 -1097 0
-1041 -1098 0
-1041 -1099 0
-1041 -1100 0
-990 -1099 0
-990 -1100 0
-1041 -990 1095 0
-1042 -987 0
-1042 -988 0
-1042 -989 0
-1042 -991 0
-1042 -992 0
-1042 -1095 0
-1042 -1097 0
-1042 -1098 0
-1042 -1099 0
-1042 -1100 0
-990 -1099 0
-990 -1100 0
-1042 -990 1096 0
-1043 -987 0
-1043 -988 0
-1043 -989 0
-1043 -991 0
-1043 -992 0
-1043 -1095 0
-1043 -1096 0
-1043 -1098 0
-1043 -1099 0
-1043 -1100 0
-990 -1099 0
-990 -1100 0
-1043 -990 1097 0
-1044 -987 0
-1044 -988 0
-1044 -989 0
-1044 -990 0
-1044 -992 0
-1044 -1096 0
-1044 -1097 0
-1044 -1098 0
-1044 -1099 0
-1044 -1100 0
-991 -1098 0
-991 -1100 0
-1044 -991 1095 0
-1045 -987 0
-1045 -988 0
-1045 -989 0
-1045 -990 0
-1045 -992 0
-1045 -1095 0
-1045 -1097 0
-1045 -1098 0
-1045 -1099 0
-1045 -1100 0
-991 -1098 0
-991 -1100 0
-1045 -991 1096 0
-1046 -987 0
-1046 -988 0
-1046 -989 0
-1046 -990 0
-1046 -992 0
-1046 -1095 0
-1046 -1096 0
-1046 -1098 0
-1046 -1099 0
-1046 -1100 0
-991 -1098 0
-991 -1100 0
-1046 -991 1097 0
1114 1023 1026 1047 1024 1027 1025 1028 1041 1042 1043 1044 1045 1046 0
-1114 -987 1095 0
1114 -987 -1095 0
-1114 -988 1096 0
1114 -988 -1096 0
-1114 -989 1097 0
1114 -989 -1097 0
-1114 -990 1098 0
1114 -990 -1098 0
-1114 -991 1099 0
1114 -991 -1099 0
-1114 -992 1100 0
1114 -992 -1100 0
-1065 -1102 0
-1065 -993 1101 0
-1065 -994 1101 0
-1067 -994 0
-1067 -1101 0
-1067 -993 1102 0
1115 1065 1067 0
-1115 -993 1101 0
1115 -993 -1101 0
-1115 -994 1102 0
1115 -994 -1102 0
-1048 -1104 0
-995 -1104 0
-1048 -995 1103 0
-1048 -996 1103 0
1116 1048 0
-1116 -995 1103 0
1116 -995 -1103 0
-1116 -996 1104 0
1116 -996 -1104 0
-1049 -1106 0
-997 -1106 0
-1049 -997 1105 0
-1049 -998 1105 0
1117 1049 0
-1117 -997 1105 0
1117 -997 -1105 0
-1117 -998 1106 0
1117 -998 -1106 0
-1047 -1108 0
-999 -1108 0
-1047 -999 1107 0
-1047 -1000 1107 0
1118 1047 0
-1118 -999 1107 0
1118 -999 -1107 0
-1118 -1000 1108 0
1118 -1000 -1108 0
-1158 -1159 0
-1158 -1159 0
-1119 -1120 0
-1119 -1121 0
-1119 -1122 0
-1119 -1123 0
-1119 -1124 0
-1119 -1137 0
-1119 -1138 0
-1119 -1139 0
-1119 -1140 0
-1119 -1141 0
-1119 -1142 0
-1119 -1156 0
-1120 -1121 0
-1120 -1122 0
-1120 -1123 0
-1120 -1124 0
-1120 -1137 0
-1120 -1138 0
-1120 -1139 0
-1120 -1140 0
-1120 -1141 0
-1120 -1142 0
-1120 -1156 0
-1121 -1122 0
-1121 -1123 0
-1121 -1124 0
-1121 -1137 0
-1121 -1138 0
-1121 -1139 0
-1121 -1140 0
-1121 -1141 0
-1121 -1142 0
-1121 -1156 0
-1122 -1123 0
-1122 -1124 0
-1122 -1137 0
-1122 -1138 0
-1122 -1139 0
-1122 -1140 0
-1122 -1141 0
-1122 -1142 0
-1122 -1156 0
-1123 -1124 0
-1123 -1137 0
-1123 -1138 0
-1123 -1139 0
-1123 -1140 0
-1123 -1141 0
-1123 -1142 0
-1123 -1156 0
-1124 -1137 0
-1124 -1138 0
-1124 -1139 0
-1124 -1140 0
-1124 -1141 0
-1124 -1142 0
-1124 -1156 0
-1137 -1138 0
-1137 -1139 0
-1137 -1140 0
-1137 -1141 0
-1137 -1142 0
-1137 -1156 0
-1138 -1139 0
-1138 -1140 0
-1138 -1141 0
-1138 -1142 0
-1138 -1156 0
-1139 -1140 0
-1139 -1141 0
-1139 -1142 0
-1139 -1156 0
-1140 -1141 0
-1140 -1142 0
-1140 -1156 0
-1141 -1142 0
-1141 -1156 0
-1142 -1156 0
-1125 -1126 0
-1125 -1127 0
-1125 -1128 0
-1125 -1129 0
-1125 -1130 0
-1125 -1143 0
-1125 -1144 0
-1125 -1145 0
-1125 -1146 0
-1125 -1147 0
-1125 -1148 0
-1125 -1157 0
-1126 -1127 0
-1126 -1128 0
-1126 -1129 0
-1126 -1130 0
-1126 -1143 0
-1126 -1144 0
-1126 -1145 0
-1126 -1146 0
-1126 -1147 0
-1126 -1148 0
-1126 -1157 0
-1127 -1128 0
-1127 -1129 0
-1127 -1130 0
-1127 -1143 0
-1127 -1144 0
-1127 -1145 0
-1127 -1146 0
-1127 -1147 0
-1127 -1148 0
-1127 -1157 0
-1128 -1129 0
-1128 -1130 0
-1128 -1143 0
-1128 -1144 0
-1128 -1145 0
-1128 -1146 0
-1128 -1147 0
-1128 -1148 0
-1128 -1157 0
-1129 -1130 0
-1129 -1143 0
-1129 -1144 0
-1129 -1145 0
-1129 -1146 0
-1129 -1147 0
-1129 -1148 0
-1129 -1157 0
-1130 -1143 0
-1130 -1144 0
-1130 -1145 0
-1130 -1146 0
-1130 -1147 0
-1130 -1148 0
-1130 -1157 0
-1143 -1144 0
-1143 -1145 0
-1143 -1146 0
-1143 -1147 0
-1143 -1148 0
-1143 -1157 0
-1144 -1145 0
-1144 -1146 0
-1144 -1147 0
-1144 -1148 0
-1144 -1157 0
-1145 -1146 0
-1145 -1147 0
-1145 -1148 0
-1145 -1157 0
-1146 -1147 0
-1146 -1148 0
-1146 -1157 0
-1147 -1148 0
-1147 -1157 0
-1148 -1157 0
-1119 -1120 0
-1119 -1121 0
-1119 -1125 0
-1119 -1126 0
-1119 -1127 0
-1119 -1131 0
-1119 -1132 0
-1119 -1133 0
-1119 -1137 0
-1119 -1138 0
-1119 -1139 0
-1119 -1143 0
-1119 -1144 0
-1119 -1145 0
-1119 -1149 0
-1119 -1150 0
-1119 -1151 0
-1120 -1121 0
-1120 -1125 0
-1120 -1126 0
-1120 -1127 0
-1120 -1131 0
-1120 -1132 0
-1120 -1133 0
-1120 -1137 0
-1120 -1138 0
-1120 -1139 0
-1120 -1143 0
-1120 -1144 0
-1120 -1145 0
-1120 -1149 0
-1120 -1150 0
-1120 -1151 0
-1121 -1125 0
-1121 -1126 0
-1121 -1127 0
-1121 -1131 0
-1121 -1132 0
-1121 -1133 0
-1121 -1137 0
-1121 -1138 0
-1121 -1139 0
-1121 -1143 0
-1121 -1144 0
-1121 -1145 0
-1121 -1149 0
-1121 -1150 0
-1121 -1151 0
-1125 -1126 0
-1125 -1127 0
-1125 -1131 0
-1125 -1132 0
-1125 -1133 0
-1125 -1137 0
-1125 -1138 0
-1125 -1139 0
-1125 -1143 0
-1125 -1144 0
-1125 -1145 0
-1125 -1149 0
-1125 -1150 0
-1125 -1151 0
-1126 -1127 0
-1126 -1131 0
-1126 -1132 0
-1126 -1133 0
-1126 -1137 0
-1126 -1138 0
-1126 -1139 0
-1126 -1143 0
-1126 -1144 0
-1126 -1145 0
-1126 -1149 0
-1126 -1150 0
-1126 -1151 0
-1127 -1131 0
-1127 -1132 0
-1127 -1133 0
-1127 -1137 0
-1127 -1138 0
-1127 -1139 0
-1127 -1143 0
-1127 -1144 0
-1127 -1145 0
-1127 -1149 0
-1127 -1150 0
-1127 -1151 0
-1131 -1132 0
-1131 -1133 0
-1131 -1137 0
-1131 -1138 0
-1131 -1139 0
-1131 -1143 0
-1131 -1144 0
-1131 -1145 0
-1131 -1149 0
-1131 -1150 0
-1131 -1151 0
-1132 -1133 0
-1132 -1137 0
-1132 -1138 0
-1132 -1139 0
-1132 -1143 0
-1132 -1144 0
-1132 -1145 0
-1132 -1149 0
-1132 -1150 0
-1132 -1151 0
-1133 -1137 0
-1133 -1138 0
-1133 -1139 0
-1133 -1143 0
-1133 -1144 0
-1133 -1145 0
-1133 -1149 0
-1133 -1150 0
-1133 -1151 0
-1137 -1138 0
-1137 -1139 0
-1137 -1143 0
-1137 -1144 0
-1137 -1145 0
-1137 -1149 0
-1137 -1150 0
-1137 -1151 0
-1138 -1139 0
-1138 -1143 0
-1138 -1144 0
-1138 -1145 0
-1138 -1149 0
-1138 -1150 0
-1138 -1151 0
-1139 -1143 0
-1139 -1144 0
-1139 -1145 0
-1139 -1149 0
-1139 -1150 0
-1139 -1151 0
-1143 -1144 0
-1143 -1145 0
-1143 -1149 0
-1143 -1150 0
-1143 -1151 0
-1144 -1145 0
-1144 -1149 0
-1144 -1150 0
-1144 -1151 0
-1145 -1149 0
-1145 -1150 0
-1145 -1151 0
-1149 -1150 0
-1149 -1151 0
-1150 -1151 0
-1131 -1132 0
-1131 -1133 0
-1131 -1134 0
-1131 -1135 0
-1131 -1136 0
-1131 -1149 0
-1131 -1150 0
-1131 -1151 0
-1131 -1152 0
-1131 -1153 0
-1131 -1154 0
-1131 -1155 0
-1132 -1133 0
-1132 -1134 0
-1132 -1135 0
-1132 -1136 0
-1132 -1149 0
-1132 -1150 0
-1132 -1151 0
-1132 -1152 0
-1132 -1153 0
-1132 -1154 0
-1132 -1155 0
-1133 -1134 0
-1133 -1135 0
-1133 -1136 0
-1133 -1149 0
-1133 -1150 0
-1133 -1151 0
-1133 -1152 0
-1133 -1153 0
-1133 -1154 0
-1133 -1155 0
-1134 -1135 0
-1134 -1136 0
-1134 -1149 0
-1134 -1150 0
-1134 -1151 0
-1134 -1152 0
-1134 -1153 0
-1134 -1154 0
-1134 -1155 0
-1135 -1136 0
-1135 -1149 0
-1135 -1150 0
-1135 -1151 0
-1135 -1152 0
-1135 -1153 0
-1135 -1154 0
-1135 -1155 0
-1136 -1149 0
-1136 -1150 0
-1136 -1151 0
-1136 -1152 0
-1136 -1153 0
-1136 -1154 0
-1136 -1155 0
-1149 -1150 0
-1149 -1151 0
-1149 -1152 0
-1149 -1153 0
-1149 -1154 0
-1149 -1155 0
-1150 -1151 0
-1150 -1152 0
-1150 -1153 0
-1150 -1154 0
-1150 -1155 0
-1151 -1152 0
-1151 -1153 0
-1151 -1154 0
-1151 -1155 0
-1152 -1153 0
-1152 -1154 0
-1152 -1155 0
-1153 -1154 0
-1153 -1155 0
-1154 -1155 0
-1122 -1123 0
-1122 -1124 0
-1122 -1128 0
-1122 -1129 0
-1122 -1130 0
-1122 -1134 0
-1122 -1135 0
-1122 -1136 0
-1122 -1140 0
-1122 -1141 0
-1122 -1142 0
-1122 -1146 0
-1122 -1147 0
-1122 -1148 0
-1122 -1152 0
-1122 -1153 0
-1122 -1154 0
-1123 -1124 0
-1123 -1128 0
-1123 -1129 0
-1123 -1130 0
-1123 -1134 0
-1123 -1135 0
-1123 -1136 0
-1123 -1140 0
-1123 -1141 0
-1123 -1142 0
-1123 -1146 0
-1123 -1147 0
-1123 -1148 0
-1123 -1152 0
-1123 -1153 0
-1123 -1154 0
-1124 -1128 0
-1124 -1129 0
-1124 -1130 0
-1124 -1134 0
-1124 -1135 0
-1124 -1136 0
-1124 -1140 0
-1124 -1141 0
-1124 -1142 0
-1124 -1146 0
-1124 -1147 0
-1124 -1148 0
-1124 -1152 0
-1124 -1153 0
-1124 -1154 0
-1128 -1129 0
-1128 -1130 0
-1128 -1134 0
-1128 -1135 0
-1128 -1136 0
-1128 -1140 0
-1128 -1141 0
-1128 -1142 0
-1128 -1146 0
-1128 -1147 0
-1128 -1148 0
-1128 -1152 0
-1128 -1153 0
-1128 -1154 0
-1129 -1130 0
-1129 -1134 0
-1129 -1135 0
-1129 -1136 0
-1129 -1140 0
-1129 -1141 0
-1129 -1142 0
-1129 -1146 0
-1129 -1147 0
-1129 -1148 0
-1129 -1152 0
-1129 -1153 0
-1129 -1154 0
-1130 -1134 0
-1130 -1135 0
-1130 -1136 0
-1130 -1140 0
-1130 -1141 0
-1130 -1142 0
-1130 -1146 0
-1130 -1147 0
-1130 -1148 0
-1130 -1152 0
-1130 -1153 0
-1130 -1154 0
-1134 -1135 0
-1134 -1136 0
-1134 -1140 0
-1134 -1141 0
-1134 -1142 0
-1134 -1146 0
-1134 -1147 0
-1134 -1148 0
-1134 -1152 0
-1134 -1153 0
-1134 -1154 0
-1135 -1136 0
-1135 -1140 0
-1135 -1141 0
-1135 -1142 0
-1135 -1146 0
-1135 -1147 0
-1135 -1148 0
-1135 -1152 0
-1135 -1153 0
-1135 -1154 0
-1136 -1140 0
-1136 -1141 0
-1136 -1142 0
-1136 -1146 0
-1136 -1147 0
-1136 -1148 0
-1136 -1152 0
-1136 -1153 0
-1136 -1154 0
-1140 -1141 0
-1140 -1142 0
-1140 -1146 0
-1140 -1147 0
-1140 -1148 0
-1140 -1152 0
-1140 -1153 0
-1140 -1154 0
-1141 -1142 0
-1141 -1146 0
-1141 -1147 0
-1141 -1148 0
-1141 -1152 0
-1141 -1153 0
-1141 -1154 0
-1142 -1146 0
-1142 -1147 0
-1142 -1148 0
-1142 -1152 0
-1142 -1153 0
-1142 -1154 0
-1146 -1147 0
-1146 -1148 0
-1146 -1152 0
-1146 -1153 0
-1146 -1154 0
-1147 -1148 0
-1147 -1152 0
-1147 -1153 0
-1147 -1154 0
-1148 -1152 0
-1148 -1153 0
-1148 -1154 0
-1152 -1153 0
-1152 -1154 0
-1153 -1154 0
1119 1120 1121 1122 1123 1124 1125 1126 1127 1128 1129 1130 1131 1132 1133 1134 1135 1136 1137 1138 1139 1140 1141 1142 1143 1144 1145 1146 1147 1148 1149 1150 1151 1152 1153 1154 1155 1156 1157 1158 1159 0
-1119 1160 0
-1122 1160 0
-1125 1160 0
-1128 1160 0
-1131 1160 0
-1134 1160 0
-1137 1160 0
-1140 1160 0
-1143 1160 0
-1146 1160 0
-1149 1160 0
-1152 1160 0
-1160 1119 1122 1125 1128 1131 1134 1137 1140 1143 1146 1149 1152 0
-1155 1161 0
-1156 1161 0
-1157 1161 0
-1161 1155 1156 1157 0
-1120 1162 0
-1123 1162 0
-1126 1162 0
-1129 1162 0
-1132 1162 0
-1135 1162 0
-1138 1162 0
-1141 1162 0
-1144 1162 0
-1147 1162 0
-1150 1162 0
-1153 1162 0
-1162 1120 1123 1126 1129 1132 1135 1138 1141 1144 1147 1150 1153 0
-1121 1163 0
-1124 1163 0
-1127 1163 0
-1130 1163 0
-1133 1163 0
-1136 1163 0
-1139 1163 0
-1142 1163 0
-1145 1163 0
-1148 1163 0
-1151 1163 0
-1154 1163 0
-1163 1121 1124 1127 1130 1133 1136 1139 1142 1145 1148 1151 1154 0
-1119 1164 0
-1120 1164 0
-1121 1164 0
-1122 1164 0
-1123 1164 0
-1124 1164 0
-1125 1164 0
-1126 1164 0
-1127 1164 0
-1128 1164 0
-1129 1164 0
-1130 1164 0
-1131 1164 0
-1132 1164 0
-1133 1164 0
-1134 1164 0
-1135 1164 0
-1136 1164 0
-1137 1164 0
-1138 1164 0
-1139 1164 0
-1140 1164 0
-1141 1164 0
-1142 1164 0
-1143 1164 0
-1144 1164 0
-1145 1164 0
-1146 1164 0
-1147 1164 0
-1148 1164 0
-1149 1164 0
-1150 1164 0
-1151 1164 0
-1152 1164 0
-1153 1164 0
-1154 1164 0
-1164 1119 1120 1121 1122 1123 1124 1125 1126 1127 1128 1129 1130 1131 1132 1133 1134 1135 1136 1137 1138 1139 1140 1141 1142 1143 1144 1145 1146 1147 1148 1149 1150 1151 1152 1153 1154 0
-1155 1165 0
-1157 1165 0
-1165 1155 1157 0
-1125 1166 0
-1126 1166 0
-1127 1166 0
-1128 1166 0
-1129 1166 0
-1130 1166 0
-1131 1166 0
-1132 1166 0
-1133 1166 0
-1134 1166 0
-1135 1166 0
-1136 1166 0
-1143 1166 0
-1144 1166 0
-1145 1166 0
-1146 1166 0
-1147 1166 0
-1148 1166 0
-1149 1166 0
-1150 1166 0
-1151 1166 0
-1152 1166 0
-1153 1166 0
-1154 1166 0
-1155 1166 0
-1157 1166 0
-1158 1166 0
-1159 1166 0
-1166 1125 1126 1127 1128 1129 1130 1131 1132 1133 1134 1135 1136 1143 1144 1145 1146 1147 1148 1149 1150 1151 1152 1153 1154 1155 1157 1158 1159 0
-1119 1167 0
-1120 1167 0
-1121 1167 0
-1122 1167 0
-1123 1167 0
-1124 1167 0
-1131 1167 0
-1132 1167 0
-1133 1167 0
-1134 1167 0
-1135 1167 0
-1136 1167 0
-1137 1167 0
-1138 1167 0
-1139 1167 0
-1140 1167 0
-1141 1167 0
-1142 1167 0
-1149 1167 0
-1150 1167 0
-1151 1167 0
-1152 1167 0
-1153 1167 0
-1154 1167 0
-1155 1167 0
-1156 1167 0
-1158 1167 0
-1159 1167 0
-1167 1119 1120 1121 1122 1123 1124 1131 1132 1133 1134 1135 1136 1137 1138 1139 1140 1141 1142 1149 1150 1151 1152 1153 1154 1155 1156 1158 1159 0
-1122 1168 0
-1123 1168 0
-1124 1168 0
-1128 1168 0
-1129 1168 0
-1130 1168 0
-1134 1168 0
-1135 1168 0
-1136 1168 0
-1140 1168 0
-1141 1168 0
-1142 1168 0
-1146 1168 0
-1147 1168 0
-1148 1168 0
-1152 1168 0
-1153 1168 0
-1154 1168 0
-1168 1122 1123 1124 1128 1129 1130 1134 1135 1136 1140 1141 1142 1146 1147 1148 1152 1153 1154 0
-1137 1169 0
-1138 1169 0
-1139 1169 0
-1143 1169 0
-1144 1169 0
-1145 1169 0
-1149 1169 0
-1150 1169 0
-1151 1169 0
-1169 1137 1138 1139 1143 1144 1145 1149 1150 1151 0
-1155 1170 0
-1156 1170 0
-1157 1170 0
-1158 1170 0
-1159 1170 0
-1170 1155 1156 1157 1158 1159 0
-1119 1171 0
-1120 1171 0
-1121 1171 0
-1125 1171 0
-1126 1171 0
-1127 1171 0
-1131 1171 0
-1132 1171 0
-1133 1171 0
-1171 1119 1120 1121 1125 1126 1127 1131 1132 1133 0
-1119 1172 0
-1120 1172 0
-1121 1172 0
-1122 1172 0
-1123 1172 0
-1124 1172 0
-1125 1172 0
-1126 1172 0
-1127 1172 0
-1128 1172 0
-1129 1172 0
-1130 1172 0
-1137 1172 0
-1138 1172 0
-1139 1172 0
-1140 1172 0
-1141 1172 0
-1142 1172 0
-1143 1172 0
-1144 1172 0
-1145 1172 0
-1146 1172 0
-1147 1172 0
-1148 1172 0
-1156 1172 0
-1157 1172 0
-1158 1172 0
-1159 1172 0
-1172 1119 1120 1121 1122 1123 1124 1125 1126 1127 1128 1129 1130 1137 1138 1139 1140 1141 1142 1143 1144 1145 1146 1147 1148 1156 1157 1158 1159 0
-1140 1173 0
-1141 1173 0
-1142 1173 0
-1146 1173 0
-1147 1173 0
-1148 1173 0
-1152 1173 0
-1153 1173 0
-1154 1173 0
-1173 1140 1141 1142 1146 1147 1148 1152 1153 1154 0
-1119 1174 0
-1120 1174 0
-1121 1174 0
-1125 1174 0
-1126 1174 0
-1127 1174 0
-1131 1174 0
-1132 1174 0
-1133 1174 0
-1137 1174 0
-1138 1174 0
-1139 1174 0
-1143 1174 0
-1144 1174 0
-1145 1174 0
-1149 1174 0
-1150 1174 0
-1151 1174 0
-1155 1174 0
-1156 1174 0
-1157 1174 0
-1158 1174 0
-1159 1174 0
-1174 1119 1120 1121 1125 1126 1127 1131 1132 1133 1137 1138 1139 1143 1144 1145 1149 1150 1151 1155 1156 1157 1158 1159 0
-1122 1175 0
-1123 1175 0
-1124 1175 0
-1128 1175 0
-1129 1175 0
-1130 1175 0
-1134 1175 0
-1135 1175 0
-1136 1175 0
-1175 1122 1123 1124 1128 1129 1130 1134 1135 1136 0
-1119 1176 0
-1120 1176 0
-1121 1176 0
-1122 1176 0
-1123 1176 0
-1124 1176 0
-1125 1176 0
-1126 1176 0
-1127 1176 0
-1128 1176 0
-1129 1176 0
-1130 1176 0
-1131 1176 0
-1132 1176 0
-1133 1176 0
-1134 1176 0
-1135 1176 0
-1136 1176 0
-1137 1176 0
-1138 1176 0
-1139 1176 0
-1140 1176 0
-1141 1176 0
-1142 1176 0
-1143 1176 0
-1144 1176 0
-1145 1176 0
-1146 1176 0
-1147 1176 0
-1148 1176 0
-1149 1176 0
-1150 1176 0
-1151 1176 0
-1152 1176 0
-1153 1176 0
-1154 1176 0
-1155 1176 0
-1157 1176 0
-1158 1176 0
-1159 1176 0
-1176 1119 1120 1121 1122 1123 1124 1125 1126 1127 1128 1129 1130 1131 1132 1133 1134 1135 1136 1137 1138 1139 1140 1141 1142 1143 1144 1145 1146 1147 1148 1149 1150 1151 1152 1153 1154 1155 1157 1158 1159 0
-1119 1177 0
-1120 1177 0
-1121 1177 0
-1122 1177 0
-1123 1177 0
-1124 1177 0
-1125 1177 0
-1126 1177 0
-1127 1177 0
-1128 1177 0
-1129 1177 0
-1130 1177 0
-1131 1177 0
-1132 1177 0
-1133 1177 0
-1134 1177 0
-1135 1177 0
-1136 1177 0
-1137 1177 0
-1138 1177 0
-1139 1177 0
-1140 1177 0
-1141 1177 0
-1142 1177 0
-1143 1177 0
-1144 1177 0
-1145 1177 0
-1146 1177 0
-1147 1177 0
-1148 1177 0
-1149 1177 0
-1150 1177 0
-1151 1177 0
-1152 1177 0
-1153 1177 0
-1154 1177 0
-1155 1177 0
-1156 1177 0
-1158 1177 0
-1159 1177 0
-1177 1119 1120 1121 1122 1123 1124 1125 1126 1127 1128 1129 1130 1131 1132 1133 1134 1135 1136 1137 1138 1139 1140 1141 1142 1143 1144 1145 1146 1147 1148 1149 1150 1151 1152 1153 1154 1155 1156 1158 1159 0
-1119 1178 0
-1120 1178 0
-1121 1178 0
-1122 1178 0
-1123 1178 0
-1124 1178 0
-1125 1178 0
-1126 1178 0
-1127 1178 0
-1128 1178 0
-1129 1178 0
-1130 1178 0
-1131 1178 0
-1132 1178 0
-1133 1178 0
-1134 1178 0
-1135 1178 0
-1136 1178 0
-1137 1178 0
-1138 1178 0
-1139 1178 0
-1140 1178 0
-1141 1178 0
-1142 1178 0
-1143 1178 0
-1144 1178 0
-1145 1178 0
-1146 1178 0
-1147 1178 0
-1148 1178 0
-1149 1178 0
-1150 1178 0
-1151 1178 0
-1152 1178 0
-1153 1178 0
-1154 1178 0
-1156 1178 0
-1157 1178 0
-1158 1178 0
-1159 1178 0
-1178 1119 1120 1121 1122 1123 1124 1125 1126 1127 1128 1129 1130 1131 1132 1133 1134 1135 1136 1137 1138 1139 1140 1141 1142 1143 1144 1145 1146 1147 1148 1149 1150 1151 1152 1153 1154 1156 1157 1158 1159 0
-1179 -1180 0
-1179 -1181 0
-1180 -1181 0
1179 1180 1181 0
-1182 -1183 0
-1182 -1184 0
-1182 -1185 0
-1182 -1186 0
-1182 -1187 0
-1182 -1188 0
-1183 -1184 0
-1183 -1185 0
-1183 -1186 0
-1183 -1187 0
-1183 -1188 0
-1184 -1185 0
-1184 -1186 0
-1184 -1187 0
-1184 -1188 0
-1185 -1186 0
-1185 -1187 0
-1185 -1188 0
-1186 -1187 0
-1186 -1188 0
-1187 -1188 0
1182 1183 1184 1185 1186 1187 1188 0
-1189 -1190 0
-1189 -1191 0
-1189 -1192 0
-1189 -1193 0
-1189 -1194 0
-1190 -1191 0
-1190 -1192 0
-1190 -1193 0
-1190 -1194 0
-1191 -1192 0
-1191 -1193 0
-1191 -1194 0
-1192 -1193 0
-1192 -1194 0
-1193 -1194 0
1189 1190 1191 1192 1193 1194 0
-1195 -1196 0
-1195 -1197 0
-1195 -1198 0
-1195 -1199 0
-1195 -1200 0
-1196 -1197 0
-1196 -1198 0
-1196 -1199 0
-1196 -1200 0
-1197 -1198 0
-1197 -1199 0
-1197 -1200 0
-1198 -1199 0
-1198 -1200 0
-1199 -1200 0
1195 1196 1197 1198 1199 1200 0
-1201 -1202 0
1201 1202 0
-1203 -1204 0
-1203 -1205 0
-1203 -1206 0
-1203 -1207 0
-1203 -1208 0
-1204 -1205 0
-1204 -1206 0
-1204 -1207 0
-1204 -1208 0
-1205 -1206 0
-1205 -1207 0
-1205 -1208 0
-1206 -1207 0
-1206 -1208 0
-1207 -1208 0
1203 1204 1205 1206 1207 1208 0
-1209 -1210 0
1209 1210 0
-1211 -1212 0
1211 1212 0
-1213 -1214 0
1213 1214 0
-1215 -1216 0
1215 1216 0
-1160 1071 0
-1160 1179 0
-1158 -1073 0
-1158 -1071 -1179 0
-1158 -1072 -1180 0
-1162 1072 0
-1162 1180 0
-1159 -1071 0
-1159 -1072 0
-1159 -1181 0
-1163 1073 0
-1163 1181 0
1217 1158 1159 0
-1217 -1071 1179 0
1217 -1071 -1179 0
-1217 -1072 1180 0
1217 -1072 -1180 0
-1217 -1073 1181 0
1217 -1073 -1181 0
-1159 -1075 0
-1159 -1080 0
-1159 -1182 0
-1159 -1184 0
-1074 -1184 0
-1074 -1185 0
-1074 -1186 0
-1074 -1187 0
-1074 -1188 0
-1159 -1074 1183 0
-1076 -1182 0
-1076 -1183 0
-1076 -1186 0
-1076 -1187 0
-1076 -1188 0
-1159 -1076 1185 0
-1077 -1182 0
-1077 -1183 0
-1077 -1184 0
-1077 -1187 0
-1077 -1188 0
-1159 -1077 1186 0
-1078 -1182 0
-1078 -1183 0
-1078 -1184 0
-1078 -1185 0
-1078 -1188 0
-1159 -1078 1187 0
-1079 -1182 0
-1079 -1183 0
-1079 -1184 0
-1079 -1185 0
-1079 -1186 0
-1159 -1079 1188 0
-1165 1075 1076 1077 1078 1079 1080 0
-1165 1183 1184 1185 1186 1187 1188 0
-1158 -1074 0
-1158 -1080 0
-1158 -1182 0
-1158 -1183 0
-1075 -1182 0
-1075 -1185 0
-1075 -1186 0
-1075 -1187 0
-1075 -1188 0
-1158 -1075 1184 0
-1076 -1182 0
-1076 -1183 0
-1076 -1186 0
-1076 -1187 0
-1076 -1188 0
-1158 -1076 1185 0
-1077 -1182 0
-1077 -1183 0
-1077 -1184 0
-1077 -1187 0
-1077 -1188 0
-1158 -1077 1186 0
-1078 -1182 0
-1078 -1183 0
-1078 -1184 0
-1078 -1185 0
-1078 -1188 0
-1158 -1078 1187 0
-1079 -1182 0
-1079 -1183 0
-1079 -1184 0
-1079 -1185 0
-1079 -1186 0
-1158 -1079 1188 0
-1156 1076 1077 0
-1156 1184 1185 0
1218 1159 1158 0
-1218 -1074 1182 0
1218 -1074 -1182 0
-1218 -1075 1183 0
1218 -1075 -1183 0
-1218 -1076 1184 0
1218 -1076 -1184 0
-1218 -1077 1185 0
1218 -1077 -1185 0
-1218 -1078 1186 0
1218 -1078 -1186 0
-1218 -1079 1187 0
1218 -1079 -1187 0
-1218 -1080 1188 0
1218 -1080 -1188 0
-1119 -1082 0
-1119 -1083 0
-1119 -1084 0
-1119 -1085 0
-1119 -1086 0
-1119 -1189 0
-1119 -1190 0
-1119 -1191 0
-1119 -1193 0
-1119 -1194 0
-1081 -1190 0
-1081 -1191 0
-1081 -1194 0
-1119 -1081 1192 0
-1122 -1082 0
-1122 -1083 0
-1122 -1084 0
-1122 -1085 0
-1122 -1086 0
-1122 -1189 0
-1122 -1190 0
-1122 -1191 0
-1122 -1192 0
-1122 -1194 0
-1081 -1190 0
-1081 -1191 0
-1081 -1194 0
-1122 -1081 1193 0
-1120 -1081 0
-1120 -1083 0
-1120 -1084 0
-1120 -1085 0
-1120 -1086 0
-1120 -1189 0
-1120 -1190 0
-1120 -1191 0
-1120 -1193 0
-1120 -1194 0
-1082 -1189 0
-1082 -1191 0
-1082 -1194 0
-1120 -1082 1192 0
-1123 -1081 0
-1123 -1083 0
-1123 -1084 0
-1123 -1085 0
-1123 -1086 0
-1123 -1189 0
-1123 -1190 0
-1123 -1191 0
-1123 -1192 0
-1123 -1194 0
-1082 -1189 0
-1082 -1191 0
-1082 -1194 0
-1123 -1082 1193 0
-1121 -1081 0
-1121 -1082 0
-1121 -1084 0
-1121 -1085 0
-1121 -1086 0
-1121 -1189 0
-1121 -1190 0
-1121 -1191 0
-1121 -1193 0
-1121 -1194 0
-1083 -1189 0
-1083 -1190 0
-1121 -1083 1192 0
-1124 -1081 0
-1124 -1082 0
-1124 -1084 0
-1124 -1085 0
-1124 -1086 0
-1124 -1189 0
-1124 -1190 0
-1124 -1191 0
-1124 -1192 0
-1124 -1194 0
-1083 -1189 0
-1083 -1190 0
-1124 -1083 1193 0
-1156 -1081 0
-1156 -1082 0
-1156 -1084 0
-1156 -1085 0
-1156 -1086 0
-1156 -1189 0
-1156 -1190 0
-1156 -1191 0
-1156 -1192 0
-1156 -1193 0
-1083 -1189 0
-1083 -1190 0
-1156 -1083 1194 0
-1137 -1081 0
-1137 -1082 0
-1137 -1083 0
-1137 -1085 0
-1137 -1086 0
-1137 -1190 0
-1137 -1191 0
-1137 -1192 0
-1137 -1193 0
-1137 -1194 0
-1084 -1193 0
-1084 -1194 0
-1137 -1084 1189 0
-1138 -1081 0
-1138 -1082 0
-1138 -1083 0
-1138 -1085 0
-1138 -1086 0
-1138 -1189 0
-1138 -1191 0
-1138 -1192 0
-1138 -1193 0
-1138 -1194 0
-1084 -1193 0
-1084 -1194 0
-1138 -1084 1190 0
-1139 -1081 0
-1139 -1082 0
-1139 -1083 0
-1139 -1085 0
-1139 -1086 0
-1139 -1189 0
-1139 -1190 0
-1139 -1192 0
-1139 -1193 0
-1139 -1194 0
-1084 -1193 0
-1084 -1194 0
-1139 -1084 1191 0
-1140 -1081 0
-1140 -1082 0
-1140 -1083 0
-1140 -1084 0
-1140 -1086 0
-1140 -1190 0
-1140 -1191 0
-1140 -1192 0
-1140 -1193 0
-1140 -1194 0
-1085 -1192 0
-1085 -1194 0
-1140 -1085 1189 0
-1141 -1081 0
-1141 -1082 0
-1141 -1083 0
-1141 -1084 0
-1141 -1086 0
-1141 -1189 0
-1141 -1191 0
-1141 -1192 0
-1141 -1193 0
-1141 -1194 0
-1085 -1192 0
-1085 -1194 0
-1141 -1085 1190 0
-1142 -1081 0
-1142 -1082 0
-1142 -1083 0
-1142 -1084 0
-1142 -1086 0
-1142 -1189 0
-1142 -1190 0
-1142 -1192 0
-1142 -1193 0
-1142 -1194 0
-1085 -1192 0
-1085 -1194 0
-1142 -1085 1191 0
1219 1119 1122 1120 1123 1121 1124 1156 1137 1138 1139 1140 1141 1142 0
-1219 -1081 1189 0
1219 -1081 -1189 0
-1219 -1082 1190 0
1219 -1082 -1190 0
-1219 -1083 1191 0
1219 -1083 -1191 0
-1219 -1084 1192 0
1219 -1084 -1192 0
-1219 -1085 1193 0
1219 -1085 -1193 0
-1219 -1086 1194 0
1219 -1086 -1194 0
-1125 -1088 0
-1125 -1089 0
-1125 -1090 0
-1125 -1091 0
-1125 -1092 0
-1125 -1195 0
-1125 -1196 0
-1125 -1197 0
-1125 -1199 0
-1125 -1200 0
-1087 -1196 0
-1087 -1197 0
-1125 -1087 1198 0
-1128 -1088 0
-1128 -1089 0
-1128 -1090 0
-1128 -1091 0
-1128 -1092 0
-1128 -1195 0
-1128 -1196 0
-1128 -1197 0
-1128 -1198 0
-1128 -1200 0
-1087 -1196 0
-1087 -1197 0
-1128 -1087 1199 0
-1157 -1088 0
-1157 -1089 0
-1157 -1090 0
-1157 -1091 0
-1157 -1092 0
-1157 -1195 0
-1157 -1196 0
-1157 -1197 0
-1157 -1198 0
-1157 -1199 0
-1087 -1196 0
-1087 -1197 0
-1157 -1087 1200 0
-1126 -1087 0
-1126 -1089 0
-1126 -1090 0
-1126 -1091 0
-1126 -1092 0
-1126 -1195 0
-1126 -1196 0
-1126 -1197 0
-1126 -1199 0
-1126 -1200 0
-1088 -1195 0
-1088 -1197 0
-1088 -1200 0
-1126 -1088 1198 0
-1129 -1087 0
-1129 -1089 0
-1129 -1090 0
-1129 -1091 0
-1129 -1092 0
-1129 -1195 0
-1129 -1196 0
-1129 -1197 0
-1129 -1198 0
-1129 -1200 0
-1088 -1195 0
-1088 -1197 0
-1088 -1200 0
-1129 -1088 1199 0
-1127 -1087 0
-1127 -1088 0
-1127 -1090 0
-1127 -1091 0
-1127 -1092 0
-1127 -1195 0
-1127 -1196 0
-1127 -1197 0
-1127 -1199 0
-1127 -1200 0
-1089 -1195 0
-1089 -1196 0
-1089 -1200 0
-1127 -1089 1198 0
-1130 -1087 0
-1130 -1088 0
-1130 -1090 0
-1130 -1091 0
-1130 -1092 0
-1130 -1195 0
-1130 -1196 0
-1130 -1197 0
-1130 -1198 0
-1130 -1200 0
-1089 -1195 0
-1089 -1196 0
-1089 -1200 0
-1130 -1089 1199 0
-1143 -1087 0
-1143 -1088 0
-1143 -1089 0
-1143 -1091 0
-1143 -1092 0
-1143 -1196 0
-1143 -1197 0
-1143 -1198 0
-1143 -1199 0
-1143 -1200 0
-1090 -1199 0
-1090 -1200 0
-1143 -1090 1195 0
-1144 -1087 0
-1144 -1088 0
-1144 -1089 0
-1144 -1091 0
-1144 -1092 0
-1144 -1195 0
-1144 -1197 0
-1144 -1198 0
-1144 -1199 0
-1144 -1200 0
-1090 -1199 0
-1090 -1200 0
-1144 -1090 1196 0
-1145 -1087 0
-1145 -1088 0
-1145 -1089 0
-1145 -1091 0
-1145 -1092 0
-1145 -1195 0
-1145 -1196 0
-1145 -1198 0
-1145 -1199 0
-1145 -1200 0
-1090 -1199 0
-1090 -1200 0
-1145 -1090 1197 0
-1146 -1087 0
-1146 -1088 0
-1146 -1089 0
-1146 -1090 0
-1146 -1092 0
-1146 -1196 0
-1146 -1197 0
-1146 -1198 0
-1146 -1199 0
-1146 -1200 0
-1091 -1198 0
-1091 -1200 0
-1146 -1091 1195 0
-1147 -1087 0
-1147 -1088 0
-1147 -1089 0
-1147 -1090 0
-1147 -1092 0
-1147 -1195 0
-1147 -1197 0
-1147 -1198 0
-1147 -1199 0
-1147 -1200 0
-1091 -1198 0
-1091 -1200 0
-1147 -1091 1196 0
-1148 -1087 0
-1148 -1088 0
-1148 -1089 0
-1148 -1090 0
-1148 -1092 0
-1148 -1195 0
-1148 -1196 0
-1148 -1198 0
-1148 -1199 0
-1148 -1200 0
-1091 -1198 0
-1091 -1200 0
-1148 -1091 1197 0
1220 1125 1128 1157 1126 1129 1127 1130 1143 1144 1145 1146 1147 1148 0
-1220 -1087 1195 0
1220 -1087 -1195 0
-1220 -1088 1196 0
1220 -1088 -1196 0
-1220 -1089 1197 0
1220 -1089 -1197 0
-1220 -1090 1198 0
1220 -1090 -1198 0
-1220 -1091 1199 0
1220 -1091 -1199 0
-1220 -1092 1200 0
1220 -1092 -1200 0
-1168 1093 0
-1168 1201 0
-1169 -1202 0
-1169 -1093 1201 0
-1169 -1094 1201 0
-1171 -1094 0
-1171 -1201 0
-1171 -1093 1202 0
1221 1169 1171 0
-1221 -1093 1201 0
1221 -1093 -1201 0
-1221 -1094 1202 0
1221 -1094 -1202 0
-1131 -1096 0
-1131 -1097 0
-1131 -1098 0
-1131 -1099 0
-1131 -1100 0
-1131 -1203 0
-1131 -1204 0
-1131 -1205 0
-1131 -1207 0
-1131 -1208 0
-1095 -1204 0
-1095 -1205 0
-1131 -1095 1206 0
-1134 -1096 0
-1134 -1097 0
-1134 -1098 0
-1134 -1099 0
-1134 -1100 0
-1134 -1203 0
-1134 -1204 0
-1134 -1205 0
-1134 -1206 0
-1134 -1208 0
-1095 -1204 0
-1095 -1205 0
-1134 -1095 1207 0
-1155 -1096 0
-1155 -1097 0
-1155 -1098 0
-1155 -1099 0
-1155 -1100 0
-1155 -1203 0
-1155 -1204 0
-1155 -1205 0
-1155 -1206 0
-1155 -1207 0
-1095 -1204 0
-1095 -1205 0
-1155 -1095 1208 0
-1132 -1095 0
-1132 -1097 0
-1132 -1098 0
-1132 -1099 0
-1132 -1100 0
-1132 -1203 0
-1132 -1204 0
-1132 -1205 0
-1132 -1207 0
-1132 -1208 0
-1096 -1203 0
-1096 -1205 0
-1096 -1208 0
-1132 -1096 1206 0
-1135 -1095 0
-1135 -1097 0
-1135 -1098 0
-1135 -1099 0
-1135 -1100 0
-1135 -1203 0
-1135 -1204 0
-1135 -1205 0
-1135 -1206 0
-1135 -1208 0
-1096 -1203 0
-1096 -1205 0
-1096 -1208 0
-1135 -1096 1207 0
-1133 -1095 0
-1133 -1096 0
-1133 -1098 0
-1133 -1099 0
-1133 -1100 0
-1133 -1203 0
-1133 -1204 0
-1133 -1205 0
-1133 -1207 0
-1133 -1208 0
-1097 -1203 0
-1097 -1204 0
-1097 -1208 0
-1133 -1097 1206 0
-1136 -1095 0
-1136 -1096 0
-1136 -1098 0
-1136 -1099 0
-1136 -1100 0
-1136 -1203 0
-1136 -1204 0
-1136 -1205 0
-1136 -1206 0
-1136 -1208 0
-1097 -1203 0
-1097 -1204 0
-1097 -1208 0
-1136 -1097 1207 0
-1149 -1095 0
-1149 -1096 0
-1149 -1097 0
-1149 -1099 0
-1149 -1100 0
-1149 -1204 0
-1149 -1205 0
-1149 -1206 0
-1149 -1207 0
-1149 -1208 0
-1098 -1207 0
-1098 -1208 0
-1149 -1098 1203 0
-1150 -1095 0
-1150 -1096 0
-1150 -1097 0
-1150 -1099 0
-1150 -1100 0
-1150 -1203 0
-1150 -1205 0
-1150 -1206 0
-1150 -1207 0
-1150 -1208 0
-1098 -1207 0
-1098 -1208 0
-1150 -1098 1204 0
-1151 -1095 0
-1151 -1096 0
-1151 -1097 0
-1151 -1099 0
-1151 -1100 0
-1151 -1203 0
-1151 -1204 0
-1151 -1206 0
-1151 -1207 0
-1151 -1208 0
-1098 -1207 0
-1098 -1208 0
-1151 -1098 1205 0
-1152 -1095 0
-1152 -1096 0
-1152 -1097 0
-1152 -1098 0
-1152 -1100 0
-1152 -1204 0
-1152 -1205 0
-1152 -1206 0
-1152 -1207 0
-1152 -1208 0
-1099 -1206 0
-1099 -1208 0
-1152 -1099 1203 0
-1153 -1095 0
-1153 -1096 0
-1153 -1097 0
-1153 -1098 0
-1153 -1100 0
-1153 -1203 0
-1153 -1205 0
-1153 -1206 0
-1153 -1207 0
-1153 -1208 0
-1099 -1206 0
-1099 -1208 0
-1153 -1099 1204 0
-1154 -1095 0
-1154 -1096 0
-1154 -1097 0
-1154 -1098 0
-1154 -1100 0
-1154 -1203 0
-1154 -1204 0
-1154 -1206 0
-1154 -1207 0
-1154 -1208 0
-1099 -1206 0
-1099 -1208 0
-1154 -1099 1205 0
1222 1131 1134 1155 1132 1135 1133 1136 1149 1150 1151 1152 1153 1154 0
-1222 -1095 1203 0
1222 -1095 -1203 0
-1222 -1096 1204 0
1222 -1096 -1204 0
-1222 -1097 1205 0
1222 -1097 -1205 0
-1222 -1098 1206 0
1222 -1098 -1206 0
-1222 -1099 1207 0
1222 -1099 -1207 0
-1222 -1100 1208 0
1222 -1100 -1208 0
-1173 -1210 0
-1173 -1101 1209 0
-1173 -1102 1209 0
-1175 -1102 0
-1175 -1209 0
-1175 -1101 1210 0
1223 1173 1175 0
-1223 -1101 1209 0
1223 -1101 -1209 0
-1223 -1102 1210 0
1223 -1102 -1210 0
-1156 -1212 0
-1103 -1212 0
-1156 -1103 1211 0
-1156 -1104 1211 0
1224 1156 0
-1224 -1103 1211 0
1224 -1103 -1211 0
-1224 -1104 1212 0
1224 -1104 -1212 0
-1157 -1214 0
-1105 -1214 0
-1157 -1105 1213 0
-1157 -1106 1213 0
1225 1157 0
-1225 -1105 1213 0
1225 -1105 -1213 0
-1225 -1106 1214 0
1225 -1106 -1214 0
-1155 -1216 0
-1107 -1216 0
-1155 -1107 1215 0
-1155 -1108 1215 0
1226 1155 0
-1226 -1107 1215 0
1226 -1107 -1215 0
-1226 -1108 1216 0
1226 -1108 -1216 0
1179 1180 1181 0
1182 1183 1184 1185 1186 1187 1188 0
1189 1190 1191 1192 1193 1194 0
1195 1196 1197 1198 1199 1200 0
1201 1202 0
1203 1204 1205 1206 1207 1208 0
1209 1210 0
1211 0
1213 0
1215 0
